[TITLE]
Gravity-consistent road-derived conceptual drainage network

[OPTIONS]
FLOW_UNITS           CMS
FLOW_ROUTING         DYNWAVE
START_DATE           01/01/2026
START_TIME           00:00:00
REPORT_START_DATE    01/01/2026
REPORT_START_TIME    00:00:00
END_DATE             01/01/2026
END_TIME             06:00:00
REPORT_STEP          00:05:00
WET_STEP             00:00:30
DRY_STEP             00:05:00
ROUTING_STEP         0:00:01.00
ALLOW_PONDING        YES
INERTIAL_DAMPING     PARTIAL
VARIABLE_STEP        0.25
MINIMUM_STEP         0.05
LENGTHENING_STEP     5.0
NORMAL_FLOW_LIMITED  BOTH
FORCE_MAIN_EQUATION  H-W
SURCHARGE_METHOD     SLOT
MAX_TRIALS           50
HEAD_TOLERANCE       0.0015
THREADS              1

[EVAPORATION]
CONSTANT 0.0
DRY_ONLY NO

[JUNCTIONS]
N00398           3.0992       2.8921     0 0 20
N02137           8.4903       6.8692     0 0 20
N02500           3.3748       34.5716    0 0 20
N01266           7.5990       5.4765     0 0 20
N01804           9.1812       2.7031     0 0 20
N00619           8.3523       19.4687    0 0 20
N01451           5.7974       0.5730     0 0 20
N02124           8.3482       12.5116    0 0 20
N01289           8.5328       3.8627     0 0 20
N01309           8.5426       9.2063     0 0 20
N00160           3.2335       2.9844     0 0 20
N01705           4.7185       1.7663     0 0 20
N01965           6.2846       6.2171     0 0 20
N01394           3.6264       10.2524    0 0 20
N01815           6.6624       3.8632     0 0 20
N01830           5.5774       4.6146     0 0 20
N01464           7.2786       0.9215     0 0 20
N01538           3.4787       2.8559     0 0 20
N01762           3.6373       1.8784     0 0 20
N01997           6.1620       5.2358     0 0 20
N01846           8.9483       2.9718     0 0 20
N01955           3.8386       1.6287     0 0 20
N01933           3.7851       4.5060     0 0 20
N00795           3.8692       1.2739     0 0 20
N01010           15.2692      7.9746     0 0 20
N00934           1.0554       3.1806     0 0 20
N02236           17.6830      14.7126    0 0 20
N01540           3.4177       3.0298     0 0 20
N00127           2.6409       4.4155     0 0 20
N02782           15.2947      5.4390     0 0 20
N00303           6.5674       1.7081     0 0 20
N01372           8.6577       7.3233     0 0 20
N00850           15.2164      4.2101     0 0 20
N01176           13.3942      4.6912     0 0 20
N00366           5.4985       0.5000     0 0 20
N02315           2.9325       3.1252     0 0 20
N00786           1.3116       2.7931     0 0 20
N02373           2.5782       2.4032     0 0 20
N00701           7.5172       16.2290    0 0 20
N00125           2.8166       1.9043     0 0 20
N02125           8.4782       8.3138     0 0 20
N01212           11.6528      23.3127    0 0 20
N01042           6.7580       11.5650    0 0 20
N02139           8.5887       0.5000     0 0 20
N01969           6.3346       13.8428    0 0 20
N01510           13.9114      7.2589     0 0 20
N01945           4.1048       2.5938     0 0 20
N01852           8.7926       4.0657     0 0 20
N01629           3.7390       0.5585     0 0 20
N01807           9.1054       1.2332     0 0 20
N00277           6.3642       2.9111     0 0 20
N01694           4.6124       2.4284     0 0 20
N00149           3.1393       2.3533     0 0 20
N01113           6.6092       1.8620     0 0 20
N02078           7.9195       7.7265     0 0 20
N00238           3.3857       7.9314     0 0 20
N02609           4.4168       2.7881     0 0 20
N01768           4.9123       1.7737     0 0 20
N02240           17.5843      6.0327     0 0 20
N00346           3.6067       2.3568     0 0 20
N01929           3.7166       4.8691     0 0 20
N01580           10.9340      6.1662     0 0 20
N00917           8.6131       11.6096    0 0 20
N00056           8.8318       7.0798     0 0 20
N00998           16.7723      5.5902     0 0 20
N00959           2.8673       5.6020     0 0 20
N01878           4.8106       16.9517    0 0 20
N01625           3.2360       1.6091     0 0 20
N01125           3.0045       2.5154     0 0 20
N00797           3.5876       2.9391     0 0 20
N02652           7.5633       5.1834     0 0 20
N01343           3.6697       1.4569     0 0 20
N01761           3.5467       2.1743     0 0 20
N00703           7.3422       11.1522    0 0 20
N01118           5.7745       2.9817     0 0 20
N02246           17.4376      6.8689     0 0 20
N02527           7.2003       22.0154    0 0 20
N01412           7.4540       5.9565     0 0 20
N02055           11.5569      10.7388    0 0 20
N00102           3.2875       4.6171     0 0 20
N02659           7.2827       4.4326     0 0 20
N02498           5.8069       2.5408     0 0 20
N02476           5.8652       4.1663     0 0 20
N01207           5.5784       4.4480     0 0 20
N02127           8.3298       3.5162     0 0 20
N00567           11.4699      11.4423    0 0 20
N01422           5.9468       4.1095     0 0 20
N02033           10.6324      10.6214    0 0 20
N01163           1.3233       2.9234     0 0 20
N02587           16.6530      4.1743     0 0 20
N00173           3.6645       1.4621     0 0 20
N00204           7.6676       3.2139     0 0 20
N01049           7.3903       27.7454    0 0 20
N00195           4.7658       2.6298     0 0 20
N01483           4.7931       0.9059     0 0 20
N00626           2.8850       10.3838    0 0 20
N00248           3.5157       2.8526     0 0 20
N01784           4.4723       2.9611     0 0 20
N01526           8.3798       4.3574     0 0 20
N02259           17.5467      3.3870     0 0 20
N02266           19.4591      3.9623     0 0 20
N02069           14.2536      9.2263     0 0 20
N02711           11.8008      6.7414     0 0 20
N02501           3.5331       1.0106     0 0 20
N02046           11.0301      0.5000     0 0 20
N02551           19.6491      22.0896    0 0 20
N02370           2.5301       2.1953     0 0 20
N02381           2.0992       2.1474     0 0 20
N02698           8.5735       19.6168    0 0 20
N01270           3.6171       1.9620     0 0 20
N00954           5.2636       2.3040     0 0 20
N00575           11.9426      33.6356    0 0 20
N02596           13.5025      7.1135     0 0 20
N02761           4.7415       1.8284     0 0 20
N02677           7.3774       4.2567     0 0 20
N01953           3.6483       1.6680     0 0 20
N02187           2.2929       2.1374     0 0 20
N02530           7.2647       25.6492    0 0 20
N02330           3.9007       0.7428     0 0 20
N01718           5.0333       2.4979     0 0 20
N01505           11.3476      7.3882     0 0 20
N01640           2.2675       2.0203     0 0 20
N01342           7.6081       3.7903     0 0 20
N00900           4.6019       2.7168     0 0 20
N00987           15.0277      3.3942     0 0 20
N00886           8.4705       2.0000     0 0 20
N00877           3.3449       1.8934     0 0 20
N00495           15.0078      2.3040     0 0 20
N01039           6.4523       0.5885     0 0 20
N00405           3.9800       1.3031     0 0 20
N01756           4.8523       1.5790     0 0 20
N00172           3.7374       1.3892     0 0 20
N00697           6.7480       11.4890    0 0 20
N01745           3.7850       2.1979     0 0 20
N02243           17.4882      8.5645     0 0 20
N00510           14.8959      2.5750     0 0 20
N02366           2.5499       2.1939     0 0 20
N00721           7.4306       27.0614    0 0 20
N01836           6.3201       4.2496     0 0 20
N02087           3.5580       1.2127     0 0 20
N00260           3.7501       3.4992     0 0 20
N02303           20.2182      18.8005    0 0 20
N00027           5.3684       1.2533     0 0 20
N01962           8.9312       15.5837    0 0 20
N00481           14.9481      3.4407     0 0 20
N01065           17.7214      11.3388    0 0 20
N00793           3.6884       1.4382     0 0 20
N02289           20.0770      8.1814     0 0 20
N02545           19.9374      0.5000     0 0 20
N00349           3.5875       5.4275     0 0 20
N02781           15.0478      4.0805     0 0 20
N01353           33.3692      14.5570    0 0 20
N02432           1.2266       2.9561     0 0 20
N02368           2.5815       2.1637     0 0 20
N02309           25.4511      12.7710    0 0 20
N01809           9.2512       0.6283     0 0 20
N00892           3.1656       7.4045     0 0 20
N02075           7.9325       8.1573     0 0 20
N01204           8.7369       12.0214    0 0 20
N00685           11.8569      1.5540     0 0 20
N00309           6.4448       0.6143     0 0 20
N02074           6.7641       9.0698     0 0 20
N00637           1.1639       3.2279     0 0 20
N02331           3.2666       12.1819    0 0 20
N01411           8.8579       0.8406     0 0 20
N00168           3.9452       1.1814     0 0 20
N02441           3.7224       3.2900     0 0 20
N02627           4.6434       6.7112     0 0 20
N01599           8.4322       10.4195    0 0 20
N01297           3.0318       4.2146     0 0 20
N01858           5.9474       4.2081     0 0 20
N02102           7.8230       24.3445    0 0 20
N00491           14.9830      2.8129     0 0 20
N00916           3.9316       10.0194    0 0 20
N02088           3.5704       0.9479     0 0 20
N00547           8.5094       4.9344     0 0 20
N00676           3.2757       2.0443     0 0 20
N01515           7.2433       1.9513     0 0 20
N01707           4.5666       1.9673     0 0 20
N01838           8.7568       3.1768     0 0 20
N02099           7.9660       25.5723    0 0 20
N02769           3.3949       2.4047     0 0 20
N02284           11.7185      11.6097    0 0 20
N02273           19.4788      22.1797    0 0 20
N01370           8.8544       0.5000     0 0 20
N02557           19.9249      6.7748     0 0 20
N01816           6.4208       3.3891     0 0 20
N02634           8.5776       11.1641    0 0 20
N01956           3.7241       4.8938     0 0 20
N02268           19.6091      12.3413    0 0 20
N00247           3.5027       2.4917     0 0 20
N02449           8.1596       7.5027     0 0 20
N00322           7.5292       5.3648     0 0 20
N01806           6.4308       3.6514     0 0 20
N02110           11.7808      9.1359     0 0 20
N01791           6.6598       0.5657     0 0 20
N00107           3.2747       6.1455     0 0 20
N02518           3.6419       2.8569     0 0 20
N01646           3.5470       6.0706     0 0 20
N01873           3.2773       2.3303     0 0 20
N02377           2.4777       2.1779     0 0 20
N01439           6.3584       3.3522     0 0 20
N02275           20.4985      0.7070     0 0 20
N00654           1.0389       3.4710     0 0 20
N01397           3.7060       13.2617    0 0 20
N00413           9.0236       12.0684    0 0 20
N00875           5.8145       2.9537     0 0 20
N00118           7.2374       8.7841     0 0 20
N01310           3.9702       14.8676    0 0 20
N01255           8.3342       8.7504     0 0 20
N01716           5.1195       2.1491     0 0 20
N01665           11.8950      1.6793     0 0 20
N00531           8.7320       8.7804     0 0 20
N02814           3.5907       2.9742     0 0 20
N00989           14.9070      3.6150     0 0 20
N02004           11.0617      1.7429     0 0 20
N01401           8.5177       17.4616    0 0 20
N02626           4.6590       11.6155    0 0 20
N01726           4.9228       1.5496     0 0 20
N00573           13.5249      6.8513     0 0 20
N01627           3.4230       1.2022     0 0 20
N01827           6.3726       3.4148     0 0 20
N00704           7.3870       10.7833    0 0 20
N01112           6.5818       1.4457     0 0 20
N02702           5.6245       1.7358     0 0 20
N02695           7.5247       36.3429    0 0 20
N00332           5.8685       2.5096     0 0 20
N02138           8.9068       4.4868     0 0 20
N02670           3.9858       6.1072     0 0 20
N01052           7.3794       25.2918    0 0 20
N00045           8.8233       7.1990     0 0 20
N00356           3.6523       3.5104     0 0 20
N02261           17.6773      0.6318     0 0 20
N02382           3.6011       2.1848     0 0 20
N02169           5.3680       7.5907     0 0 20
N00083           3.6477       1.1519     0 0 20
N02575           3.7290       0.7893     0 0 20
N02010           8.1775       9.5828     0 0 20
N00342           5.4820       1.2615     0 0 20
N01517           7.0919       2.4490     0 0 20
N01536           13.5225      6.8323     0 0 20
N00390           3.1309       6.7005     0 0 20
N02832           16.5583      8.2485     0 0 20
N02752           33.4274      16.0330    0 0 20
N00233           1.2460       2.9522     0 0 20
N01146           11.8327      18.0330    0 0 20
N01040           7.8213       25.0924    0 0 20
N02302           20.2582      26.3682    0 0 20
N02216           17.9012      31.6378    0 0 20
N00824           4.5796       3.5246     0 0 20
N02637           8.1296       7.7746     0 0 20
N01059           7.4082       24.1843    0 0 20
N00123           3.1668       2.2694     0 0 20
N01854           5.9152       3.3009     0 0 20
N01792           6.5608       1.5859     0 0 20
N00792           3.7515       1.3751     0 0 20
N00487           15.0136      1.7462     0 0 20
N02828           19.7645      14.7335    0 0 20
N01529           16.5725      8.3918     0 0 20
N00323           7.6176       3.6877     0 0 20
N00269           3.7371       2.2890     0 0 20
N01502           2.9280       4.3496     0 0 20
N00274           6.4672       3.1231     0 0 20
N02674           6.9529       6.0290     0 0 20
N02534           7.3504       25.8039    0 0 20
N01123           3.5283       2.9207     0 0 20
N02433           1.1657       2.6009     0 0 20
N00219           3.4625       3.7825     0 0 20
N02430           10.7455      9.4578     0 0 20
N01389           2.8390       1.8819     0 0 20
N00013           7.0506       2.2280     0 0 20
N01572           3.6918       3.1028     0 0 20
N02491           1.1439       3.4393     0 0 20
N00034           11.7468      11.6357    0 0 20
N01025           8.9079       6.0117     0 0 20
N01652           7.5950       0.8223     0 0 20
N02643           7.5410       5.5748     0 0 20
N00384           3.0071       2.6212     0 0 20
N02824           3.3730       1.2514     0 0 20
N02802           3.7817       1.5803     0 0 20
N01892           8.0031       8.2224     0 0 20
N02844           16.8606      4.8278     0 0 20
N02512           13.7689      9.2003     0 0 20
N01871           3.8612       3.9975     0 0 20
N00239           3.4751       2.2714     0 0 20
N00640           2.1912       2.5240     0 0 20
N02661           3.9954       6.3700     0 0 20
N02537           7.4441       31.1729    0 0 20
N01061           17.4789      8.6558     0 0 20
N02345           4.0500       1.1442     0 0 20
N01886           4.7415       1.8284     0 0 20
N01126           2.8050       2.4323     0 0 20
N02667           7.7843       0.9647     0 0 20
N00317           7.8007       21.4499    0 0 20
N02657           7.7806       5.5033     0 0 20
N00922           8.6841       5.9979     0 0 20
N02094           24.2725      4.0481     0 0 20
N02439           8.6133       9.5800     0 0 20
N01575           5.1471       1.3377     0 0 20
N01578           5.3578       2.4431     0 0 20
N02811           3.6990       6.0799     0 0 20
N01102           3.7563       0.7620     0 0 20
N01492           3.7215       2.1837     0 0 20
N01488           3.3587       1.4598     0 0 20
N00117           7.1703       6.1473     0 0 20
N01404           2.5911       2.4576     0 0 20
N00111           2.8956       1.9065     0 0 20
N01137           8.3943       12.5129    0 0 20
N02292           25.2673      4.3451     0 0 20
N00673           3.6876       11.1393    0 0 20
N00425           11.9447      2.7046     0 0 20
N01855           5.4767       2.7659     0 0 20
N02244           17.5024      8.9432     0 0 20
N00367           2.9632       7.0541     0 0 20
N00010           7.3333       1.8613     0 0 20
N01482           3.7008       1.4258     0 0 20
N00373           1.0764       3.3371     0 0 20
N02077           7.8912       6.8954     0 0 20
N02313           3.6461       7.0654     0 0 20
N01819           8.8126       3.5834     0 0 20
N00289           5.5274       1.9394     0 0 20
N00190           3.9996       1.3509     0 0 20
N01767           4.9273       1.6591     0 0 20
N00999           16.7023      6.2303     0 0 20
N01043           8.5211       35.7230    0 0 20
N02787           3.9225       5.1998     0 0 20
N01748           5.1165       0.5000     0 0 20
N00618           7.9760       25.5690    0 0 20
N00408           11.3568      7.4008     0 0 20
N02822           4.8153       11.6797    0 0 20
N00698           30.8143      17.9006    0 0 20
N01906           6.6556       8.9403     0 0 20
N00401           3.8823       1.1981     0 0 20
N02568           11.8532      10.0692    0 0 20
N00018           5.6984       3.8211     0 0 20
N01528           16.5854      7.9551     0 0 20
N00122           3.2375       2.5874     0 0 20
N02599           8.6848       8.6065     0 0 20
N00424           12.0611      2.3136     0 0 20
N00186           3.7928       1.5037     0 0 20
N00210           3.8751       6.5565     0 0 20
N01787           4.4624       3.3230     0 0 20
N00159           3.8637       7.2912     0 0 20
N00707           15.1609      2.2737     0 0 20
N02638           8.1203       6.3507     0 0 20
N00161           3.2580       2.9477     0 0 20
N01710           4.5018       1.9830     0 0 20
N01140           17.0880      5.0791     0 0 20
N01912           3.9626       5.7734     0 0 20
N00700           30.9179      17.5083    0 0 20
N01143           11.7521      20.0067    0 0 20
N00242           3.4762       3.1901     0 0 20
N02390           4.5294       2.4590     0 0 20
N01154           11.9110      35.1526    0 0 20
N02834           16.3920      8.1819     0 0 20
N02208           5.6145       5.7963     0 0 20
N00783           33.2686      12.2586    0 0 20
N00389           3.0328       2.6602     0 0 20
N00951           19.3768      22.4073    0 0 20
N02660           7.8897       4.2002     0 0 20
N02825           11.1156      1.2704     0 0 20
N02604           3.6424       4.1531     0 0 20
N01778           5.2413       1.3110     0 0 20
N02388           3.7302       0.5673     0 0 20
N01486           3.7938       1.6921     0 0 20
N01660           3.7066       1.7454     0 0 20
N00586           17.0459      6.3490     0 0 20
N01280           10.8280      13.4034    0 0 20
N02280           20.4785      0.5000     0 0 20
N00711           30.8543      12.9580    0 0 20
N00799           3.6679       2.8857     0 0 20
N01708           4.5042       2.8010     0 0 20
N01364           31.1646      1.4303     0 0 20
N00203           7.7441       1.3978     0 0 20
N02628           4.7568       12.4392    0 0 20
N02406           15.0794      4.6970     0 0 20
N01833           5.4863       2.6164     0 0 20
N02015           10.9203      5.3419     0 0 20
N01135           8.9062       17.5727    0 0 20
N00175           3.6385       1.4881     0 0 20
N00090           3.6360       10.4669    0 0 20
N02090           3.6511       0.8673     0 0 20
N02131           5.2736       1.9811     0 0 20
N00993           15.2331      4.4938     0 0 20
N01011           15.3292      6.1075     0 0 20
N02611           3.6390       0.6585     0 0 20
N02469           8.5841       2.9999     0 0 20
N02249           17.6473      1.8196     0 0 20
N01614           1.2962       2.7230     0 0 20
N01654           3.8277       2.4986     0 0 20
N02291           11.7028      18.6554    0 0 20
N01919           8.7299       12.9354    0 0 20
N00994           15.0577      3.0069     0 0 20
N01964           6.6833       10.4653    0 0 20
N01781           5.2588       1.2459     0 0 20
N02100           7.9684       24.9959    0 0 20
N02204           4.4723       4.3607     0 0 20
N02715           3.7290       3.0627     0 0 20
N02378           2.5501       5.0982     0 0 20
N02523           8.3839       19.7079    0 0 20
N01111           6.3076       4.3909     0 0 20
N01560           11.7017      1.7092     0 0 20
N02157           5.3980       6.7644     0 0 20
N02161           5.4999       5.0571     0 0 20
N01306           8.3210       18.8474    0 0 20
N00646           2.1668       1.7053     0 0 20
N01649           7.3224       1.8721     0 0 20
N01077           6.5009       5.1014     0 0 20
N01331           11.3699      4.9426     0 0 20
N01746           5.0137       1.6582     0 0 20
N00166           8.7154       12.5844    0 0 20
N01247           2.0890       2.2112     0 0 20
N02383           2.0961       2.2893     0 0 20
N00903           3.9201       1.0669     0 0 20
N00550           16.7514      0.5000     0 0 20
N00709           7.4589       12.7150    0 0 20
N01961           11.6931      15.6673    0 0 20
N00624           2.9133       7.7284     0 0 20
N00304           6.5194       0.5214     0 0 20
N02743           1.9450       5.1926     0 0 20
N01387           2.7519       2.1898     0 0 20
N01380           7.0062       5.9515     0 0 20
N00228           3.5559       2.3679     0 0 20
N02656           7.7850       5.4365     0 0 20
N01662           4.1173       4.5494     0 0 20
N01400           8.5941       9.0730     0 0 20
N01971           6.2452       2.5344     0 0 20
N02823           3.2808       1.3908     0 0 20
N02483           3.8412       3.4421     0 0 20
N01430           5.4767       2.4399     0 0 20
N00810           4.5483       2.3997     0 0 20
N00347           3.4347       1.8113     0 0 20
N01959           11.6740      13.1096    0 0 20
N01373           7.6250       0.6480     0 0 20
N02805           5.1947       10.2302    0 0 20
N00375           2.9264       4.2507     0 0 20
N01410           8.7657       3.1858     0 0 20
N00853           15.2524      5.2261     0 0 20
N00901           3.7250       0.8089     0 0 20
N02274           19.3973      4.3616     0 0 20
N01379           8.9775       3.6197     0 0 20
N01722           4.9289       2.9001     0 0 20
N02520           7.0974       4.5436     0 0 20
N01624           3.3122       1.2294     0 0 20
N02182           2.7966       2.1880     0 0 20
N00984           16.6887      7.8275     0 0 20
N00664           25.5123      12.2775    0 0 20
N00902           3.8122       0.5000     0 0 20
N01008           16.6962      7.9955     0 0 20
N00996           16.8541      5.3093     0 0 20
N00509           15.0119      2.7469     0 0 20
N02177           2.8973       1.9642     0 0 20
N01487           3.2979       1.5206     0 0 20
N01975           11.5569      10.9295    0 0 20
N01800           6.6514       3.6037     0 0 20
N01992           7.9482       6.9011     0 0 20
N02086           3.5504       1.0395     0 0 20
N00930           33.1946      8.9155     0 0 20
N02307           25.5094      19.5349    0 0 20
N01070           7.9699       4.3595     0 0 20
N02569           20.1970      2.2992     0 0 20
N00320           7.3564       14.8832    0 0 20
N01248           1.9885       2.3870     0 0 20
N00504           15.0778      2.6653     0 0 20
N00095           3.4415       4.0228     0 0 20
N00825           4.6816       4.3422     0 0 20
N01635           1.9946       1.8775     0 0 20
N01031           3.7200       3.0717     0 0 20
N00383           3.6061       2.9697     0 0 20
N01166           13.7781      9.8764     0 0 20
N01585           7.3582       25.9414    0 0 20
N01695           4.5318       1.9530     0 0 20
N00054           8.0915       9.0853     0 0 20
N02002           7.6594       2.0000     0 0 20
N01026           8.9044       3.6400     0 0 20
N02109           11.7608      10.8123    0 0 20
N00660           2.9892       2.1367     0 0 20
N02354           3.8507       0.7928     0 0 20
N02355           3.6691       1.0891     0 0 20
N01925           6.6850       10.3889    0 0 20
N01048           33.5984      1.4467     0 0 20
N00344           5.4000       2.4556     0 0 20
N00592           16.7309      0.5000     0 0 20
N00313           30.9603      18.4089    0 0 20
N00382           3.6967       1.6194     0 0 20
N01320           8.6186       7.8080     0 0 20
N01810           9.1454       1.0653     0 0 20
N01904           8.6341       8.1348     0 0 20
N01867           5.7169       2.4144     0 0 20
N02023           16.6592      5.4512     0 0 20
N00251           3.5112       2.8832     0 0 20
N01264           10.7331      10.0111    0 0 20
N02141           5.4560       1.6244     0 0 20
N00933           3.6479       1.3519     0 0 20
N01253           8.5200       6.4148     0 0 20
N01206           5.6412       0.5000     0 0 20
N01948           4.1100       2.7754     0 0 20
N00307           6.4384       0.6207     0 0 20
N01281           7.5891       39.9599    0 0 20
N00064           7.0648       2.3977     0 0 20
N01035           5.7274       1.3321     0 0 20
N00441           11.5157      13.2137    0 0 20
N02064           14.3589      34.8527    0 0 20
N01887           6.2799       3.5243     0 0 20
N01325           11.4881      8.0935     0 0 20
N01766           5.0347       1.0554     0 0 20
N01687           4.3477       5.0627     0 0 20
N02636           8.2083       5.6289     0 0 20
N00856           8.1850       6.2954     0 0 20
N02708           3.5919       2.2154     0 0 20
N01130           3.4249       1.8134     0 0 20
N02468           8.5936       1.4444     0 0 20
N01086           3.6044       2.4947     0 0 20
N02438           3.9768       14.4655    0 0 20
N02054           11.5611      10.9544    0 0 20
N02517           3.7833       4.5013     0 0 20
N00556           16.3551      9.4378     0 0 20
N01120           4.6546       2.4255     0 0 20
N00170           3.7749       4.2768     0 0 20
N02532           7.5104       33.3240    0 0 20
N00198           3.8328       3.3149     0 0 20
N02027           10.8980      7.5448     0 0 20
N02465           11.8247      3.7715     0 0 20
N02306           25.6293      19.5471    0 0 20
N01383           1.1570       3.0750     0 0 20
N01092           15.2737      25.0453    0 0 20
N00726           8.6326       6.0187     0 0 20
N00642           1.9337       1.9855     0 0 20
N01241           17.6530      1.2430     0 0 20
N02179           2.6421       1.9276     0 0 20
N01588           7.4082       23.9485    0 0 20
N00135           1.9134       4.3882     0 0 20
N01371           8.7209       5.2129     0 0 20
N01338           6.5908       0.9392     0 0 20
N02795           11.8750      2.4681     0 0 20
N02418           33.1263      6.1170     0 0 20
N01302           5.0441       1.8211     0 0 20
N02328           3.6256       1.2801     0 0 20
N00740           8.5822       10.2900    0 0 20
N02300           20.0994      10.3819    0 0 20
N01368           8.6518       8.3976     0 0 20
N01019           8.4916       27.5097    0 0 20
N02101           7.9502       29.6826    0 0 20
N00727           8.3622       18.7612    0 0 20
N01382           1.2270       5.0446     0 0 20
N01719           5.1607       1.4129     0 0 20
N00312           31.0434      18.8508    0 0 20
N02319           3.0729       2.4354     0 0 20
N01663           3.4030       0.8970     0 0 20
N00928           33.0173      4.1882     0 0 20
N02493           3.8558       1.3891     0 0 20
N02831           15.4059      6.2813     0 0 20
N01692           3.6683       3.2314     0 0 20
N00355           5.4790       2.6717     0 0 20
N00351           3.6236       3.5593     0 0 20
N02522           8.4156       38.9380    0 0 20
N00232           2.2612       2.4230     0 0 20
N00069           7.6050       0.7568     0 0 20
N01361           15.2207      2.5985     0 0 20
N02475           4.0077       3.9341     0 0 20
N01479           4.4264       2.4588     0 0 20
N01773           4.7828       1.8960     0 0 20
N01210           11.4857      12.1274    0 0 20
N00093           3.5948       5.5533     0 0 20
N02799           8.5247       11.7385    0 0 20
N01020           8.2493       20.7594    0 0 20
N02239           17.6514      6.3027     0 0 20
N00128           2.6144       1.9553     0 0 20
N00240           3.5139       2.7635     0 0 20
N00921           8.4301       27.3835    0 0 20
N02642           7.7125       1.3198     0 0 20
N01467           3.9192       1.3817     0 0 20
N00364           3.5508       2.3363     0 0 20
N00179           3.9426       1.2912     0 0 20
N00693           7.8639       1.8570     0 0 20
N02803           13.9538      7.0686     0 0 20
N00744           5.0906       6.1039     0 0 20
N01251           8.3594       3.0046     0 0 20
N01714           5.1254       1.3594     0 0 20
N00958           2.9120       2.0854     0 0 20
N02846           3.5154       1.7228     0 0 20
N02641           7.7045       2.2669     0 0 20
N00644           1.9981       1.8740     0 0 20
N02721           15.4458      5.2078     0 0 20
N00621           2.8911       2.5806     0 0 20
N00650           0.9630       2.9972     0 0 20
N00774           19.7145      29.2150    0 0 20
N02252           17.4886      6.9288     0 0 20
N00321           7.4370       6.8937     0 0 20
N01920           8.6294       8.3966     0 0 20
N02173           3.6689       3.2717     0 0 20
N00609           33.2716      11.6478    0 0 20
N00569           11.4570      12.4686    0 0 20
N02276           20.5785      2.6413     0 0 20
N00625           2.9949       5.0894     0 0 20
N01788           4.4818       2.0030     0 0 20
N02007           7.9672       5.1372     0 0 20
N00310           6.6256       1.7041     0 0 20
N01960           11.8044      12.7775    0 0 20
N02457           11.6587      23.7894    0 0 20
N00138           2.0405       3.3979     0 0 20
N02726           8.3856       9.1618     0 0 20
N00432           11.4275      8.9497     0 0 20
N02113           8.5517       3.8438     0 0 20
N01731           5.1171       1.6930     0 0 20
N00115           7.3047       1.4301     0 0 20
N01584           3.6993       1.4273     0 0 20
N00177           3.0924       2.5113     0 0 20
N00273           6.3500       3.1796     0 0 20
N00991           15.0726      3.8433     0 0 20
N02299           20.3070      1.1077     0 0 20
N01446           9.1054       1.1980     0 0 20
N00566           5.3526       7.5395     0 0 20
N01594           17.0488      5.8324     0 0 20
N02747           4.6033       1.8957     0 0 20
N01700           3.5261       3.4168     0 0 20
N00492           14.9406      1.8888     0 0 20
N01984           11.0658      8.2117     0 0 20
N02751           33.3447      12.7661    0 0 20
N01520           3.8178       1.6615     0 0 20
N00615           24.2117      4.2523     0 0 20
N01021           8.4516       32.5493    0 0 20
N02410           15.3958      5.8472     0 0 20
N01583           8.1231       9.2896     0 0 20
N02724           8.7284       8.8166     0 0 20
N02210           5.6445       1.8164     0 0 20
N00860           16.8608      4.0388     0 0 20
N01736           5.0464       6.8348     0 0 20
N01562           17.0817      5.4013     0 0 20
N00126           2.7270       1.8427     0 0 20
N00630           1.1349       3.0433     0 0 20
N01543           3.9725       1.8043     0 0 20
N00426           12.0911      1.9306     0 0 20
N00548           12.1147      2.9629     0 0 20
N01101           3.1766       1.8362     0 0 20
N00565           5.4397       10.5780    0 0 20
N01885           4.5892       3.4038     0 0 20
N00369           1.3182       7.3038     0 0 20
N01893           8.1031       21.5740    0 0 20
N00502           14.8846      2.4739     0 0 20
N00691           6.9613       15.5876    0 0 20
N00428           11.8860      3.0708     0 0 20
N01426           5.9452       3.7188     0 0 20
N00180           3.9813       1.2827     0 0 20
N02505           11.6849      12.6951    0 0 20
N01115           6.5950       1.7624     0 0 20
N02130           5.4336       1.6037     0 0 20
N02744           1.0617       3.5067     0 0 20
N02687           6.7280       8.8603     0 0 20
N01038           6.3723       0.7137     0 0 20
N02158           5.4653       1.9574     0 0 20
N00906           3.9565       1.8707     0 0 20
N00337           3.7883       3.9524     0 0 20
N01449           9.0112       11.2638    0 0 20
N00183           3.2580       5.1171     0 0 20
N01632           2.9085       2.1314     0 0 20
N01490           3.6908       2.6195     0 0 20
N01116           5.6369       3.0137     0 0 20
N02095           24.3025      4.0116     0 0 20
N02209           5.7067       2.3366     0 0 20
N01803           9.1012       1.4320     0 0 20
N00653           1.1124       3.1443     0 0 20
N00143           7.0887       4.5087     0 0 20
N01994           7.7230       2.9512     0 0 20
N00918           8.5325       26.2172    0 0 20
N00513           15.1995      2.2351     0 0 20
N02085           3.5704       0.9479     0 0 20
N01131           3.3531       2.1896     0 0 20
N00815           3.3861       6.5879     0 0 20
N00869           2.0881       3.7618     0 0 20
N00234           1.1950       3.3622     0 0 20
N02327           3.4431       3.7647     0 0 20
N00360           5.5014       3.2858     0 0 20
N01958           11.6752      13.3652    0 0 20
N01715           5.1396       1.3452     0 0 20
N01741           5.0430       1.9013     0 0 20
N02755           7.7419       6.5384     0 0 20
N02791           8.5205       1.9915     0 0 20
N00908           4.9228       3.2858     0 0 20
N02535           7.4904       31.3351    0 0 20
N01213           25.3804      9.2135     0 0 20
N02529           7.2364       23.9092    0 0 20
N02585           8.5622       11.6610    0 0 20
N02067           14.3994      11.2398    0 0 20
N02385           2.2247       2.4640     0 0 20
N02730           8.6750       12.8075    0 0 20
N02084           3.5796       1.2115     0 0 20
N01208           5.4784       2.1046     0 0 20
N02607           4.4352       2.9540     0 0 20
N00572           11.4068      7.7562     0 0 20
N01555           6.2752       2.8378     0 0 20
N02325           1.1794       3.1091     0 0 20
N02356           3.5587       2.0000     0 0 20
N01563           13.8581      7.4964     0 0 20
N00363           3.6140       4.8067     0 0 20
N01480           4.5070       2.9011     0 0 20
N02123           8.3694       2.9555     0 0 20
N01699           3.6161       2.5378     0 0 20
N00488           15.2421      2.5773     0 0 20
N01686           4.3477       2.3834     0 0 20
N02332           3.3387       25.6529    0 0 20
N01620           3.9018       2.2171     0 0 20
N01901           6.5744       5.1521     0 0 20
N01862           5.8045       2.7081     0 0 20
N02640           7.7951       1.6317     0 0 20
N01856           5.5275       1.9473     0 0 20
N00672           33.2462      7.7741     0 0 20
N01808           9.1412       1.1381     0 0 20
N01260           10.6507      9.9781     0 0 20
N01466           4.0600       1.1852     0 0 20
N00354           3.5971       4.2448     0 0 20
N01586           7.3222       23.4105    0 0 20
N02147           3.8112       3.1382     0 0 20
N00770           16.7026      0.9163     0 0 20
N01970           8.9560       15.3464    0 0 20
N00632           1.1800       2.6922     0 0 20
N00723           7.6464       16.4852    0 0 20
N01653           3.6785       1.4481     0 0 20
N01647           7.2048       2.1556     0 0 20
N00164           8.6854       12.7747    0 0 20
N00705           7.4306       31.9060    0 0 20
N00359           3.6280       2.3205     0 0 20
N00139           2.1112       2.4778     0 0 20
N02053           11.6876      1.7234     0 0 20
N01738           5.7774       0.8939     0 0 20
N00535           8.6554       12.4487    0 0 20
N00985           15.1848      4.1735     0 0 20
N01298           3.8547       3.0219     0 0 20
N02735           8.6786       10.4531    0 0 20
N02671           7.0262       5.6090     0 0 20
N00148           7.3003       1.7820     0 0 20
N02035           10.9203      5.5838     0 0 20
N01712           5.2371       1.2477     0 0 20
N01036           5.5574       1.9094     0 0 20
N02196           4.4441       2.5752     0 0 20
N01539           3.5912       4.6010     0 0 20
N00533           8.6477       9.4934     0 0 20
N01751           3.6915       2.1394     0 0 20
N00217           3.2557       1.9900     0 0 20
N01582           8.1343       9.3967     0 0 20
N00397           3.1257       4.0624     0 0 20
N00200           3.8689       4.0474     0 0 20
N01755           4.9423       1.5527     0 0 20
N00158           7.0974       4.4030     0 0 20
N01720           5.0289       2.4081     0 0 20
N00888           3.3352       2.0238     0 0 20
N00270           3.8264       2.4998     0 0 20
N00311           6.5255       4.3951     0 0 20
N01974           11.6424      12.6388    0 0 20
N01485           3.7444       1.3822     0 0 20
N00690           7.0284       18.3600    0 0 20
N01587           7.4382       26.6559    0 0 20
N02739           8.5105       11.7875    0 0 20
N02081           3.7146       1.9334     0 0 20
N00140           2.1812       2.3045     0 0 20
N01598           17.0041      6.0065     0 0 20
N01721           4.9270       9.0906     0 0 20
N00540           11.9947      3.5625     0 0 20
N00015           2.9765       3.0671     0 0 20
N02260           17.7480      1.2903     0 0 20
N01218           25.6177      23.0909    0 0 20
N00457           16.7393      1.3494     0 0 20
N02375           3.1948       2.1998     0 0 20
N01037           6.4023       0.6567     0 0 20
N00604           7.2139       22.2968    0 0 20
N02047           10.9296      4.8873     0 0 20
N02678           7.8944       3.8759     0 0 20
N00739           8.6492       9.6700     0 0 20
N00087           1.1051       3.5586     0 0 20
N01074           7.7507       8.4273     0 0 20
N02515           17.7703      0.5000     0 0 20
N01198           13.3221      2.0000     0 0 20
N01900           6.6550       10.1073    0 0 20
N01532           16.5854      8.4629     0 0 20
N02736           8.7786       7.7306     0 0 20
N01834           5.8935       5.6732     0 0 20
N00395           3.0897       4.0985     0 0 20
N02845           16.3104      7.5265     0 0 20
N00511           14.9855      2.5751     0 0 20
N00688           6.2446       5.8050     0 0 20
N01650           7.4146       1.8155     0 0 20
N01435           6.4226       2.2835     0 0 20
N02489           3.1048       2.3218     0 0 20
N01489           3.7414       1.7904     0 0 20
N00295           6.4084       2.6637     0 0 20
N02584           8.5422       11.7939    0 0 20
N02111           8.4304       4.2098     0 0 20
N02767           3.4502       2.1358     0 0 20
N01351           1.2351       4.3196     0 0 20
N02509           13.6526      6.9907     0 0 20
N02391           4.5494       2.7753     0 0 20
N02001           7.8225       3.8106     0 0 20
N00508           15.0026      2.5171     0 0 20
N02450           8.1096       6.1933     0 0 20
N02745           1.2950       3.0560     0 0 20
N02369           2.4801       2.2496     0 0 20
N02615           5.3214       4.7771     0 0 20
N00909           5.0041       8.9168     0 0 20
N00259           3.6694       2.3851     0 0 20
N01769           4.8111       1.6099     0 0 20
N01685           4.2477       2.0000     0 0 20
N02679           7.9112       7.0928     0 0 20
N01290           3.3590       1.8793     0 0 20
N02840           15.2054      7.0831     0 0 20
N00503           15.0243      3.7554     0 0 20
N00294           6.5674       2.2432     0 0 20
N00001           7.0919       2.4696     0 0 20
N02521           8.3710       19.3861    0 0 20
N00494           15.1025      2.4188     0 0 20
N00914           3.8474       11.2032    0 0 20
N01114           5.7503       2.6071     0 0 20
N00326           2.9411       2.4051     0 0 20
N01369           8.6165       7.3988     0 0 20
N00506           14.9131      3.5392     0 0 20
N02029           10.7392      10.0772    0 0 20
N01057           7.1916       20.8325    0 0 20
N02649           7.5660       5.2510     0 0 20
N01868           5.6804       2.0000     0 0 20
N02013           10.8987      16.4412    0 0 20
N02143           5.2778       1.3703     0 0 20
N01927           8.2348       3.6796     0 0 20
N00932           33.5078      8.3542     0 0 20
N02070           14.3177      30.0579    0 0 20
N00016           2.9153       3.1130     0 0 20
N01405           8.5535       20.5942    0 0 20
N01857           3.8412       3.4854     0 0 20
N02105           24.4830      8.1071     0 0 20
N02706           3.6056       3.5521     0 0 20
N01004           16.6462      7.3148     0 0 20
N01684           4.3682       2.9310     0 0 20
N01145           11.8916      32.1295    0 0 20
N02098           7.9460       25.3174    0 0 20
N01141           16.9817      6.0914     0 0 20
N02219           15.3700      14.7952    0 0 20
N02407           15.2112      9.8952     0 0 20
N02212           3.7588       4.1069     0 0 20
N02842           2.1576       1.8832     0 0 20
N02119           8.3482       10.8747    0 0 20
N01402           8.6339       14.1521    0 0 20
N01069           15.1925      2.8392     0 0 20
N00187           3.7733       4.0396     0 0 20
N00827           4.5621       3.4441     0 0 20
N01046           7.2575       22.7328    0 0 20
N00153           2.9314       1.8063     0 0 20
N01824           7.9248       6.4227     0 0 20
N01611           2.8438       1.9329     0 0 20
N01844           6.2840       5.1284     0 0 20
N00552           16.5170      12.0353    0 0 20
N01643           3.3693       1.4916     0 0 20
N02411           11.8774      37.7612    0 0 20
N00482           14.8971      2.7954     0 0 20
N01349           3.8915       1.3063     0 0 20
N01574           5.2271       1.2577     0 0 20
N01576           4.5218       1.9630     0 0 20
N02017           8.1533       6.4939     0 0 20
N01350           1.1070       3.1834     0 0 20
N00379           3.0396       9.0926     0 0 20
N00142           7.3999       2.3958     0 0 20
N02544           15.2841      5.0223     0 0 20
N01291           19.8072      2.5348     0 0 20
N00147           7.1790       6.4531     0 0 20
N01434           6.5026       7.5193     0 0 20
N01657           3.8524       3.0970     0 0 20
N01777           3.9029       3.0965     0 0 20
N00008           7.4378       0.7737     0 0 20
N01797           6.4808       0.7847     0 0 20
N01613           1.2911       2.7432     0 0 20
N02447           8.3496       12.5168    0 0 20
N01996           6.4100       3.1293     0 0 20
N02073           7.8720       4.9533     0 0 20
N00671           33.1263      5.8585     0 0 20
N01523           2.8411       8.0338     0 0 20
N01122           5.7669       2.5259     0 0 20
N01448           9.0712       8.9706     0 0 20
N01458           17.0230      6.0918     0 0 20
N02384           2.1039       2.2108     0 0 20
N01399           8.5035       18.5095    0 0 20
N00065           7.2189       2.3345     0 0 20
N01390           2.8814       1.8395     0 0 20
N01696           4.6724       3.0591     0 0 20
N00011           7.2733       1.9213     0 0 20
N00675           3.7722       3.1988     0 0 20
N01339           7.5248       5.3692     0 0 20
N01597           13.8581      7.9583     0 0 20
N00386           2.9423       3.0642     0 0 20
N00229           3.6959       2.3302     0 0 20
N00427           12.1811      3.0190     0 0 20
N01609           2.8711       2.4904     0 0 20
N01914           3.8811       6.8947     0 0 20
N02061           14.5387      7.7452     0 0 20
N02417           33.1534      5.4160     0 0 20
N02365           2.6011       2.7088     0 0 20
N00100           3.0705       2.9486     0 0 20
N00114           7.3586       0.5000     0 0 20
N02778           15.1562      4.0941     0 0 20
N01733           4.7928       1.8868     0 0 20
N00352           3.5109       5.4370     0 0 20
N00822           3.5092       2.8302     0 0 20
N01879           4.7792       13.2426    0 0 20
N01012           2.9332       1.9232     0 0 20
N01896           7.7407       3.4353     0 0 20
N02117           8.3705       2.3099     0 0 20
N02068           14.3480      9.4912     0 0 20
N01286           9.0065       13.5237    0 0 20
N00237           0.9440       2.1482     0 0 20
N00067           7.3233       2.0260     0 0 20
N00911           13.4613      6.7501     0 0 20
N01313           3.7220       19.1877    0 0 20
N01258           11.6707      13.3941    0 0 20
N01521           3.6120       6.3446     0 0 20
N00651           0.9708       3.3970     0 0 20
N00416           9.0236       11.8310    0 0 20
N00975           5.8874       3.3710     0 0 20
N02440           8.5426       8.0380     0 0 20
N02753           5.8461       2.5268     0 0 20
N01890           8.0714       19.7638    0 0 20
N01312           3.8264       17.1663    0 0 20
N00596           17.0402      6.3438     0 0 20
N00024           11.7409      31.5939    0 0 20
N01966           6.2576       3.5745     0 0 20
N01775           4.7627       1.7411     0 0 20
N02595           13.5025      13.0645    0 0 20
N02032           10.6987      12.1339    0 0 20
N02247           17.5892      10.0846    0 0 20
N00927           32.9749      3.1031     0 0 20
N00299           6.5123       0.5724     0 0 20
N01842           9.0120       11.0611    0 0 20
N02558           1.2909       6.3379     0 0 20
N00745           5.1806       9.2182     0 0 20
N00945           19.4268      27.1745    0 0 20
N02720           3.7341       4.8011     0 0 20
N02436           3.8676       20.4280    0 0 20
N02746           3.7568       5.4146     0 0 20
N02741           8.5738       11.6306    0 0 20
N01215           25.2573      2.9709     0 0 20
N02775           24.0312      2.3589     0 0 20
N01601           33.4008      15.3151    0 0 20
N01921           8.8444       14.3142    0 0 20
N02128           8.3282       3.5389     0 0 20
N00019           5.7784       2.9619     0 0 20
N00301           6.4547       0.6478     0 0 20
N01884           4.7192       1.8508     0 0 20
N02608           4.2930       2.0000     0 0 20
N00388           3.0838       3.1693     0 0 20
N01723           5.7857       1.1350     0 0 20
N00324           7.6904       3.0167     0 0 20
N02490           3.1348       2.7191     0 0 20
N02312           3.2576       6.6812     0 0 20
N00020           5.6993       2.6581     0 0 20
N01565           13.7741      10.0831    0 0 20
N01940           3.6319       2.3350     0 0 20
N01902           6.6156       9.0085     0 0 20
N02434           1.2168       3.7414     0 0 20
N00990           16.6823      8.6126     0 0 20
N02774           23.9900      2.0000     0 0 20
N00622           2.8128       6.0672     0 0 20
N00659           3.0500       2.1699     0 0 20
N00099           7.7411       0.8472     0 0 20
N00201           3.9198       5.1816     0 0 20
N02786           4.0466       6.0013     0 0 20
N01780           5.2671       1.4079     0 0 20
N00833           1.3051       5.8473     0 0 20
N00546           12.1239      2.8210     0 0 20
N02250           17.6598      6.7074     0 0 20
N00214           3.5361       2.7413     0 0 20
N00002           3.5470       5.8532     0 0 20
N00919           8.6641       6.8215     0 0 20
N01744           2.9241       2.3799     0 0 20
N00333           3.8588       3.6846     0 0 20
N02454           4.6646       2.4772     0 0 20
N01442           6.1762       4.8327     0 0 20
N00282           6.3076       1.6873     0 0 20
N01090           12.0827      11.6916    0 0 20
N02700           3.7212       3.0705     0 0 20
N00374           0.9906       3.5838     0 0 20
N00439           11.6924      14.5101    0 0 20
N01861           6.0150       4.6848     0 0 20
N02028           10.7031      10.0271    0 0 20
N00281           6.3948       0.6643     0 0 20
N00193           3.9453       1.3315     0 0 20
N01098           3.1406       1.9526     0 0 20
N01799           6.6608       3.6721     0 0 20
N01993           7.7007       2.4328     0 0 20
N02631           8.8499       7.3527     0 0 20
N02819           3.3861       2.3887     0 0 20
N00620           8.2717       22.1003    0 0 20
N02800           3.7354       3.0563     0 0 20
N00931           33.4350      11.3027    0 0 20
N02283           11.6514      10.9718    0 0 20
N02466           8.5653       1.7907     0 0 20
N01352           3.1936       4.9649     0 0 20
N02112           8.5104       3.8850     0 0 20
N02237           17.6875      11.2172    0 0 20
N02467           8.5759       2.9187     0 0 20
N02458           25.3473      10.3690    0 0 20
N00150           3.0883       2.6438     0 0 20
N02121           8.0979       5.9954     0 0 20
N01891           7.9890       8.5734     0 0 20
N02692           7.0201       15.9245    0 0 20
N00066           7.2749       1.9196     0 0 20
N00669           11.6709      21.6039    0 0 20
N01989           7.9390       7.7733     0 0 20
N02644           7.4682       5.9415     0 0 20
N01728           5.0147       1.0754     0 0 20
N00268           3.8616       2.6298     0 0 20
N00926           8.6565       8.1739     0 0 20
N02749           33.3128      13.0841    0 0 20
N00341           3.6056       2.3429     0 0 20
N00264           3.6412       3.1673     0 0 20
N00134           1.9672       4.6047     0 0 20
N02014           8.0272       2.5938     0 0 20
N00687           11.8557      1.5552     0 0 20
N01701           3.4561       3.6018     0 0 20
N00553           16.3825      15.1234    0 0 20
N01845           8.6500       3.2028     0 0 20
N01420           8.9920       8.6883     0 0 20
N01468           4.0613       1.1687     0 0 20
N00455           11.9360      3.6306     0 0 20
N02686           7.0060       17.0073    0 0 20
N01910           8.4066       5.0162     0 0 20
N00965           3.8214       4.9097     0 0 20
N00443           11.6685      9.9452     0 0 20
N02536           7.5187       32.8101    0 0 20
N00627           2.8497       9.1377     0 0 20
N01002           16.3464      9.2872     0 0 20
N01491           3.7750       3.0288     0 0 20
N02115           5.5036       7.0540     0 0 20
N01872           3.7606       4.9262     0 0 20
N02817           3.5283       2.3150     0 0 20
N02714           3.6224       2.0378     0 0 20
N02065           14.2853      11.4843    0 0 20
N02583           8.6331       13.1122    0 0 20
N01950           3.5771       2.3566     0 0 20
N00602           7.5035       29.3355    0 0 20
N00442           11.5963      11.6347    0 0 20
N02294           25.3780      10.4005    0 0 20
N02414           11.7205      16.5324    0 0 20
N02408           15.3053      8.0799     0 0 20
N00331           3.8131       2.1748     0 0 20
N01427           5.9452       3.2006     0 0 20
N00907           3.8965       0.7470     0 0 20
N00769           16.5921      3.3390     0 0 20
N01656           3.8775       3.0719     0 0 20
N02308           25.5993      19.0901    0 0 20
N01869           5.7304       1.9951     0 0 20
N00925           8.5328       24.5060    0 0 20
N00946           19.4278      27.9633    0 0 20
N01385           2.6197       1.9500     0 0 20
N00085           3.6187       0.9499     0 0 20
N02167           5.3614       8.2567     0 0 20
N00979           5.3766       1.8105     0 0 20
N01276           7.6653       16.3666    0 0 20
N00873           3.7370       0.5000     0 0 20
N01326           11.4123      7.7534     0 0 20
N01801           6.5708       2.4097     0 0 20
N02648           7.6882       4.7761     0 0 20
N02156           5.4597       7.2765     0 0 20
N01790           4.3618       2.1714     0 0 20
N01832           6.0151       5.4222     0 0 20
N02364           2.6836       2.9977     0 0 20
N01440           6.3808       2.8123     0 0 20
N02750           33.4050      12.9472    0 0 20
N02008           8.1973       5.4883     0 0 20
N00628           2.8823       6.6658     0 0 20
N01764           3.6167       2.3633     0 0 20
N01324           15.2305      2.3862     0 0 20
N01550           8.5681       3.8273     0 0 20
N01452           5.0371       1.0531     0 0 20
N01214           25.1873      2.0000     0 0 20
N00436           11.5876      14.2518    0 0 20
N01000           11.6973      12.5083    0 0 20
N00616           7.4622       30.3638    0 0 20
N00588           13.8849      7.0933     0 0 20
N01185           13.8365      9.2094     0 0 20
N01303           8.6607       12.4221    0 0 20
N00103           3.2875       2.3973     0 0 20
N00852           11.7585      10.9607    0 0 20
N01628           2.2750       3.0679     0 0 20
N00725           7.4888       1.0425     0 0 20
N02288           20.1070      10.4205    0 0 20
N01345           3.8221       1.2084     0 0 20
N01293           4.6411       2.0049     0 0 20
N00861           16.8723      3.6989     0 0 20
N00022           5.6169       2.7406     0 0 20
N00370           1.2334       5.9418     0 0 20
N02539           3.1136       2.9940     0 0 20
N01147           11.8998      26.1846    0 0 20
N01820           6.2807       4.3327     0 0 20
N02149           3.7143       4.0632     0 0 20
N02487           3.6339       1.8705     0 0 20
N02564           3.6281       3.5548     0 0 20
N00365           3.8590       2.5778     0 0 20
N02531           7.5204       33.4140    0 0 20
N02079           6.8405       9.0839     0 0 20
N00776           7.4650       31.1582    0 0 20
N00261           3.7775       8.0635     0 0 20
N02009           11.1256      1.2483     0 0 20
N01559           5.0507       1.0394     0 0 20
N00818           3.6449       8.0465     0 0 20
N02215           17.8446      15.8409    0 0 20
N01073           7.9709       6.2775     0 0 20
N01897           8.0838       8.1786     0 0 20
N00236           1.0517       3.2020     0 0 20
N01688           4.2677       2.1337     0 0 20
N01006           11.6024      9.9456     0 0 20
N01463           7.3567       2.9771     0 0 20
N00406           4.0625       0.9382     0 0 20
N00677           6.2593       2.3667     0 0 20
N02785           7.2327       4.1504     0 0 20
N02619           5.4811       2.8903     0 0 20
N01991           8.1266       7.0399     0 0 20
N01441           6.2524       5.4571     0 0 20
N00306           6.5897       2.8398     0 0 20
N00554           16.5542      7.8979     0 0 20
N02374           3.1148       2.7478     0 0 20
N01299           2.9611       2.7155     0 0 20
N00336           3.5683       3.2131     0 0 20
N01915           8.5894       7.4205     0 0 20
N00162           7.1374       3.4174     0 0 20
N02549           19.7150      8.4209     0 0 20
N01740           5.0824       1.3938     0 0 20
N02134           8.5282       2.1508     0 0 20
N02003           7.8366       3.6562     0 0 20
N00243           3.5072       2.7703     0 0 20
N02804           8.6468       13.3870    0 0 20
N01693           3.5783       2.5805     0 0 20
N00780           15.1002      2.4289     0 0 20
N00515           17.7763      2.6035     0 0 20
N00645           2.0787       1.7934     0 0 20
N02582           8.7250       11.7626    0 0 20
N00091           3.5648       4.1209     0 0 20
N01690           6.5637       0.7962     0 0 20
N02606           3.4649       2.5321     0 0 20
N01817           6.4220       3.2210     0 0 20
N02188           2.2123       2.5021     0 0 20
N01749           3.5385       2.5326     0 0 20
N00857           12.2215      4.5634     0 0 20
N02794           11.8755      0.5200     0 0 20
N01913           3.9195       5.0125     0 0 20
N00636           1.1538       3.3682     0 0 20
N01428           5.9251       4.4976     0 0 20
N02026           10.7975      8.5413     0 0 20
N02145           3.8012       3.4295     0 0 20
N01988           7.9166       6.7710     0 0 20
N00284           4.6280       2.1974     0 0 20
N01782           4.6927       1.7283     0 0 20
N00682           11.4109      2.0000     0 0 20
N01499           3.2946       5.0345     0 0 20
N01305           8.3839       22.6591    0 0 20
N00288           5.6080       2.1692     0 0 20
N02738           8.6645       12.6697    0 0 20
N01554           6.3459       3.0260     0 0 20
N01407           8.3806       18.9732    0 0 20
N01525           5.4478       1.8209     0 0 20
N00963           3.9560       1.2527     0 0 20
N00915           3.8616       11.3815    0 0 20
N02508           17.0459      6.3328     0 0 20
N02685           6.7796       11.5650    0 0 20
N00223           3.8133       1.6125     0 0 20
N00213           1.0570       3.3368     0 0 20
N02709           1.9634       2.2352     0 0 20
N02556           19.8145      10.8334    0 0 20
N01496           2.8741       7.1623     0 0 20
N01725           4.8052       7.2568     0 0 20
N00714           7.6912       18.5420    0 0 20
N01254           8.3598       3.6839     0 0 20
N02526           33.4328      16.4111    0 0 20
N00835           1.2834       7.0960     0 0 20
N01391           0.9347       3.4842     0 0 20
N01508           5.4350       9.3633     0 0 20
N02103           7.8402       23.2435    0 0 20
N01864           5.8744       2.5019     0 0 20
N01429           6.0051       4.4833     0 0 20
N00105           4.0296       1.2778     0 0 20
N01335           30.7157      14.7414    0 0 20
N01703           4.5518       1.9507     0 0 20
N01456           3.6363       0.8820     0 0 20
N00507           14.9346      1.9123     0 0 20
N02006           7.9382       4.2759     0 0 20
N01612           3.7525       10.7393    0 0 20
N02162           5.3397       6.9993     0 0 20
N02116           5.5645       3.8484     0 0 20
N01849           5.5935       1.8438     0 0 20
N00319           7.6741       16.3405    0 0 20
N00681           11.5469      10.6181    0 0 20
N02057           7.7914       5.5717     0 0 20
N00202           3.8851       3.9495     0 0 20
N02658           8.0044       4.6206     0 0 20
N01374           7.7050       0.9145     0 0 20
N01414           7.4865       13.6351    0 0 20
N01003           16.5026      12.7805    0 0 20
N01445           9.1761       4.7037     0 0 20
N00848           17.5656      20.2314    0 0 20
N00094           3.5215       5.1334     0 0 20
N01591           19.6691      26.2864    0 0 20
N00137           1.9670       3.1068     0 0 20
N00182           3.9665       1.5403     0 0 20
N00493           15.1795      2.2551     0 0 20
N02654           7.7616       2.3832     0 0 20
N00986           15.1150      3.5241     0 0 20
N01544           3.8918       1.2198     0 0 20
N01337           30.7695      18.2282    0 0 20
N02719           3.9189       4.1988     0 0 20
N02114           8.6175       3.7779     0 0 20
N00924           8.2810       20.4906    0 0 20
N00040           6.6362       2.1009     0 0 20
N00156           7.1290       3.7281     0 0 20
N01408           8.6141       7.9155     0 0 20
N01285           8.8391       19.9990    0 0 20
N00858           12.0536      2.8340     0 0 20
N00071           3.0906       2.1556     0 0 20
N00865           11.4657      11.1271    0 0 20
N00278           6.4996       2.7711     0 0 20
N01472           2.5921       1.9776     0 0 20
N01642           1.2850       3.3069     0 0 20
N01549           3.2383       2.0000     0 0 20
N01316           8.4926       9.9533     0 0 20
N01051           33.4497      8.6883     0 0 20
N02000           7.8125       3.9831     0 0 20
N00891           3.4780       2.0000     0 0 20
N01750           5.0689       1.2672     0 0 20
N01358           6.5450       4.6473     0 0 20
N02843           15.2631      5.8419     0 0 20
N02588           13.8265      9.2158     0 0 20
N01205           8.8291       20.0090    0 0 20
N01045           7.0474       5.4713     0 0 20
N02172           8.8086       7.8624     0 0 20
N02437           3.8564       15.5678    0 0 20
N00371           1.1909       3.8656     0 0 20
N01023           8.4928       22.0233    0 0 20
N00031           11.6277      9.1331     0 0 20
N00254           3.7558       2.2703     0 0 20
N00791           30.9626      15.1037    0 0 20
N00450           12.0511      2.0651     0 0 20
N02651           7.5564       5.4287     0 0 20
N01124           12.1448      5.2306     0 0 20
N01918           8.6210       8.5446     0 0 20
N01759           5.2495       1.2459     0 0 20
N02285           11.5198      12.1887    0 0 20
N01308           8.5067       8.9199     0 0 20
N02148           3.7850       4.0486     0 0 20
N01812           6.5808       1.1048     0 0 20
N00944           25.6319      23.7076    0 0 20
N00437           11.6509      20.0431    0 0 20
N02376           2.5640       2.3165     0 0 20
N02594           13.5342      5.7735     0 0 20
N01689           3.5872       2.9229     0 0 20
N00266           3.7818       2.2442     0 0 20
N01396           3.4515       5.0371     0 0 20
N00499           15.0166      2.1707     0 0 20
N02435           3.6807       10.8074    0 0 20
N00110           4.1408       4.0719     0 0 20
N02768           3.5367       2.9670     0 0 20
N00832           3.2046       0.6846     0 0 20
N00539           11.8347      3.7336     0 0 20
N02830           19.3561      4.2437     0 0 20
N00361           3.6099       6.5941     0 0 20
N01121           6.4460       3.5076     0 0 20
N01465           7.3415       2.4071     0 0 20
N02443           3.5085       1.7478     0 0 20
N00545           8.8541       6.0971     0 0 20
N00536           5.3703       7.7512     0 0 20
N00036           16.8187      4.8819     0 0 20
N00585           17.0453      6.0911     0 0 20
N00315           31.1550      16.5139    0 0 20
N02097           7.8260       22.9818    0 0 20
N00694           3.9941       6.4749     0 0 20
N02132           5.4536       1.5587     0 0 20
N00438           11.6908      8.7597     0 0 20
N00329           3.3340       1.8022     0 0 20
N02538           7.5187       35.0763    0 0 20
N02712           11.8108      6.0939     0 0 20
N01573           3.7864       4.0745     0 0 20
N00154           7.3776       2.2185     0 0 20
N01938           6.7074       12.0221    0 0 20
N02163           5.3561       7.6062     0 0 20
N00684           7.5790       5.7907     0 0 20
N01541           3.4687       2.9790     0 0 20
N00680           7.5860       3.8290     0 0 20
N02293           25.3073      6.6718     0 0 20
N01963           6.6060       4.8820     0 0 20
N02541           3.1265       5.0096     0 0 20
N01186           13.5025      7.3224     0 0 20
N02506           11.9650      35.6110    0 0 20
N00141           2.2312       2.2886     0 0 20
N01859           5.9250       4.0905     0 0 20
N00035           16.7387      6.0982     0 0 20
N02415           11.6793      19.7055    0 0 20
N01457           3.7908       2.2224     0 0 20
N00905           4.0293       1.1967     0 0 20
N00692           7.7911       0.5000     0 0 20
N02485           3.7291       1.3975     0 0 20
N01341           8.3783       5.0991     0 0 20
N02836           16.5442      7.7378     0 0 20
N02553           19.6703      29.0141    0 0 20
N01406           8.4335       19.2358    0 0 20
N01641           1.8721       2.0000     0 0 20
N00920           8.5101       27.4205    0 0 20
N02729           8.5388       11.6534    0 0 20
N02281           20.1170      5.0840     0 0 20
N01470           2.8367       7.9136     0 0 20
N01257           11.6691      13.4210    0 0 20
N01133           3.4647       7.1940     0 0 20
N00655           3.9944       0.5791     0 0 20
N00708           7.4143       10.2994    0 0 20
N01648           7.2624       1.9321     0 0 20
N01795           9.1636       1.5001     0 0 20
N00032           11.6874      11.9107    0 0 20
N00878           3.2624       1.9759     0 0 20
N00325           5.0148       1.2912     0 0 20
N00132           2.0658       4.0999     0 0 20
N00176           3.9115       1.1190     0 0 20
N00345           3.5167       2.8188     0 0 20
N02550           19.6645      25.3019    0 0 20
N01798           6.6927       2.3677     0 0 20
N01250           25.6177      23.8493    0 0 20
N01050           7.3141       22.6341    0 0 20
N01678           3.5596       1.7872     0 0 20
N01501           5.0360       6.8130     0 0 20
N02296           20.1770      17.0626    0 0 20
N00003           3.4628       5.1831     0 0 20
N00992           15.1631      4.0151     0 0 20
N00957           3.9464       1.1541     0 0 20
N00394           3.1192       2.8473     0 0 20
N01877           4.7990       15.9548    0 0 20
N02270           20.2682      26.3200    0 0 20
N02371           2.6211       2.6376     0 0 20
N01284           30.8766      17.8044    0 0 20
N02816           3.5183       3.0300     0 0 20
N00101           3.2527       2.8707     0 0 20
N01047           7.1727       20.6814    0 0 20
N00271           3.8682       3.6757     0 0 20
N02351           3.7103       1.0834     0 0 20
N00819           3.6349       7.7178     0 0 20
N02555           19.6538      8.3487     0 0 20
N00551           16.6451      5.6716     0 0 20
N00608           33.3834      16.0046    0 0 20
N01438           6.3945       3.5172     0 0 20
N02159           5.5653       3.3448     0 0 20
N01717           4.9541       2.6137     0 0 20
N01895           8.1015       9.8176     0 0 20
N02444           3.4585       2.0438     0 0 20
N00587           13.8626      7.0435     0 0 20
N00534           8.5388       11.9361    0 0 20
N00262           3.8375       3.3061     0 0 20
N01905           8.8351       13.6483    0 0 20
N01889           6.3359       2.9508     0 0 20
N01972           11.6524      13.2799    0 0 20
N01365           7.7536       19.8419    0 0 20
N02694           7.5347       41.3639    0 0 20
N00836           1.2770       5.8263     0 0 20
N01995           6.1879       5.6728     0 0 20
N02623           3.6568       1.4698     0 0 20
N01398           3.7173       12.2606    0 0 20
N02429           3.8695       6.2698     0 0 20
N01957           10.6424      10.2112    0 0 20
N01314           3.6921       13.6141    0 0 20
N01595           17.0317      6.2735     0 0 20
N02106           7.8052       22.2038    0 0 20
N02135           5.5260       7.1101     0 0 20
N00368           3.0853       7.4663     0 0 20
N00923           8.2476       20.4978    0 0 20
N02754           5.8961       3.0800     0 0 20
N02298           20.1770      2.2957     0 0 20
N02511           13.7941      10.2608    0 0 20
N01763           3.6209       2.2328     0 0 20
N01794           9.2741       0.5000     0 0 20
N02731           8.5329       11.8065    0 0 20
N01459           16.5521      2.2080     0 0 20
N01548           3.2948       1.9434     0 0 20
N01760           3.5332       2.6889     0 0 20
N01022           8.5834       40.4402    0 0 20
N00188           3.8355       5.3918     0 0 20
N00068           7.5550       0.9533     0 0 20
N00211           0.9124       2.0000     0 0 20
N01344           3.8949       1.1356     0 0 20
N00227           3.4580       3.7236     0 0 20
N02524           8.3763       17.7637    0 0 20
N01259           10.5924      10.0306    0 0 20
N01381           1.1685       2.6399     0 0 20
N01447           9.1717       2.6889     0 0 20
N01083           3.3557       6.5610     0 0 20
N02024           14.9689      3.4805     0 0 20
N01682           6.5218       0.5190     0 0 20
N00863           11.6304      21.5715    0 0 20
N01392           1.2409       4.7361     0 0 20
N01606           3.6202       2.7979     0 0 20
N01739           5.0371       1.0531     0 0 20
N00497           14.8907      2.8018     0 0 20
N00779           33.6418      0.5000     0 0 20
N00005           3.2733       5.2299     0 0 20
N01329           11.3252      4.5598     0 0 20
N00021           5.6445       4.5344     0 0 20
N02496           2.2012       2.2301     0 0 20
N00773           7.2455       25.0947    0 0 20
N02717           3.7683       3.8146     0 0 20
N01295           3.8859       4.0868     0 0 20
N01013           3.0193       1.7575     0 0 20
N00530           5.2753       8.0745     0 0 20
N02673           6.9429       6.0207     0 0 20
N01742           5.7891       0.6841     0 0 20
N01754           3.6367       2.4534     0 0 20
N01504           11.6604      19.9080    0 0 20
N00775           7.3445       25.2600    0 0 20
N01279           10.7255      10.0139    0 0 20
N01713           5.0971       1.4471     0 0 20
N01924           6.5297       4.2606     0 0 20
N00302           6.4994       0.5414     0 0 20
N00411           11.4252      9.4361     0 0 20
N02192           2.2983       2.0454     0 0 20
N00025           15.1648      4.2469     0 0 20
N01211           11.7632      31.1173    0 0 20
N01542           3.2457       2.0000     0 0 20
N02211           3.6788       3.3497     0 0 20
N02664           7.8051       1.7393     0 0 20
N00291           6.5384       4.9994     0 0 20
N00362           5.3966       1.3068     0 0 20
N02264           17.7880      2.8218     0 0 20
N01610           2.7767       2.0000     0 0 20
N01530           16.4404      7.7004     0 0 20
N00821           3.4538       4.5100     0 0 20
N00218           3.4722       4.6268     0 0 20
N01907           6.6144       8.9439     0 0 20
N01876           4.5980       1.9011     0 0 20
N01776           5.2413       1.2435     0 0 20
N01269           3.4871       2.0000     0 0 20
N01001           11.6341      11.0414    0 0 20
N00635           1.2362       2.8251     0 0 20
N00889           3.3307       2.0056     0 0 20
N02060           14.4134      9.9583     0 0 20
N02552           19.6503      20.9423    0 0 20
N02016           8.1875       6.6573     0 0 20
N02630           4.7111       3.9865     0 0 20
N00023           25.6354      22.0236    0 0 20
N00265           3.7975       2.2028     0 0 20
N02136           5.5336       7.8393     0 0 20
N02063           14.7052      0.7468     0 0 20
N00834           1.2018       3.0347     0 0 20
N00606           33.6058      1.1262     0 0 20
N00828           3.6766       3.8876     0 0 20
N02018           16.5387      10.8983    0 0 20
N02044           11.0517      7.7489     0 0 20
N02262           17.5243      3.6602     0 0 20
N00699           30.8502      17.1872    0 0 20
N01634           2.1036       2.4826     0 0 20
N01882           3.6665       8.0854     0 0 20
N02838           15.1114      5.1414     0 0 20
N01870           3.8905       3.6292     0 0 20
N00184           3.2029       2.0834     0 0 20
N00343           5.4762       0.5224     0 0 20
N01478           3.4926       2.5052     0 0 20
N00713           31.1234      4.2693     0 0 20
N00076           12.0044      10.4054    0 0 20
N00221           4.8210       0.8779     0 0 20
N01484           4.6911       7.4264     0 0 20
N01681           3.5936       2.8319     0 0 20
N00017           3.1275       2.8282     0 0 20
N01939           8.8605       12.8840    0 0 20
N02282           11.5470      11.6602    0 0 20
N02142           5.0936       2.8008     0 0 20
N01973           11.6391      12.7425    0 0 20
N01252           8.4400       3.5463     0 0 20
N02818           3.4361       2.2753     0 0 20
N01119           6.5408       0.5000     0 0 20
N02776           8.1224       22.0423    0 0 20
N00215           3.4161       3.0314     0 0 20
N00194           4.0065       3.7851     0 0 20
N01786           4.4765       3.1827     0 0 20
N01091           15.0978      5.2472     0 0 20
N02663           7.8944       3.9617     0 0 20
N01093           15.1912      8.8050     0 0 20
N02279           16.7339      5.7938     0 0 20
N00794           3.7786       1.7062     0 0 20
N01667           8.4822       3.9133     0 0 20
N01779           5.2495       1.3397     0 0 20
N01164           1.2560       1.7479     0 0 20
N00220           3.6665       8.7097     0 0 20
N00814           4.7700       1.3521     0 0 20
N01395           3.4615       2.0386     0 0 20
N02503           11.6307      10.2849    0 0 20
N02826           19.5591      7.0605     0 0 20
N01474           3.7561       1.2124     0 0 20
N02034           10.6607      10.6479    0 0 20
N00199           3.8838       3.9892     0 0 20
N01129           3.3531       1.8852     0 0 20
N01622           3.3830       1.0637     0 0 20
N01835           6.2884       4.9208     0 0 20
N01880           4.7759       11.7659    0 0 20
N02792           8.5771       1.3236     0 0 20
N01431           6.5450       2.7713     0 0 20
N00591           13.6571      7.5504     0 0 20
N00855           12.1471      2.7146     0 0 20
N00890           3.4107       1.8275     0 0 20
N01840           6.0551       5.0070     0 0 20
N00330           3.7959       1.5528     0 0 20
N00404           3.8868       0.7567     0 0 20
N00555           16.7693      1.8237     0 0 20
N01454           3.5280       1.0968     0 0 20
N00806           4.6161       2.4177     0 0 20
N00327           2.8964       2.4383     0 0 20
N02462           8.6013       2.8607     0 0 20
N00249           3.4080       2.3228     0 0 20
N02813           3.6707       3.1210     0 0 20
N00222           3.9177       1.2089     0 0 20
N00882           3.2483       1.9900     0 0 20
N00253           3.7337       0.8662     0 0 20
N01433           6.5441       2.3356     0 0 20
N02473           3.7407       1.3859     0 0 20
N00678           6.3400       2.2861     0 0 20
N00328           3.7714       1.8782     0 0 20
N01888           6.2652       2.7947     0 0 20
N01522           2.8474       9.1850     0 0 20
N01813           9.2030       1.7166     0 0 20
N01616           1.9916       2.8151     0 0 20
N01524           8.5834       11.5682    0 0 20
N02546           12.0544      11.3342    0 0 20
N00600           8.0490       30.0137    0 0 20
N01064           17.7942      28.7178    0 0 20
N00929           33.1122      5.7810     0 0 20
N02669           7.2774       4.4451     0 0 20
N02528           7.1868       20.3218    0 0 20
N02316           5.0348       3.6699     0 0 20
N01363           31.2462      11.4317    0 0 20
N01132           3.4031       1.9948     0 0 20
N00185           3.1244       3.0539     0 0 20
N02318           3.1416       3.0396     0 0 20
N00070           2.9165       3.1649     0 0 20
N01142           16.9370      5.5611     0 0 20
N00287           5.6363       2.0832     0 0 20
N00308           6.5221       3.1831     0 0 20
N02734           8.5466       12.3613    0 0 20
N01311           3.8802       15.8983    0 0 20
N00089           0.9940       3.1842     0 0 20
N00113           3.0745       2.8370     0 0 20
N01638           2.0046       1.8675     0 0 20
N01821           8.9271       6.1819     0 0 20
N02461           11.7486      2.7716     0 0 20
N01362           31.1734      2.9714     0 0 20
N02389           4.4299       2.5929     0 0 20
N01511           13.8489      7.0984     0 0 20
N00574           13.6011      3.8301     0 0 20
N00631           1.2550       3.3907     0 0 20
N01967           6.2352       2.4293     0 0 20
N02425           8.9665       14.0834    0 0 20
N00851           15.1173      3.5011     0 0 20
N02093           24.3341      4.1673     0 0 20
N00097           3.5015       4.3872     0 0 20
N00849           14.9894      3.2846     0 0 20
N00485           15.0049      2.0724     0 0 20
N02213           3.8200       4.0439     0 0 20
N00812           4.7207       11.9483    0 0 20
N00197           3.5286       1.6633     0 0 20
N01831           8.8013       2.1061     0 0 20
N01089           33.5174      6.1537     0 0 20
N00689           6.3252       3.8262     0 0 20
N01377           5.0581       4.6493     0 0 20
N01926           8.2138       2.2704     0 0 20
N01348           3.7774       1.6569     0 0 20
N01935           8.8560       12.7651    0 0 20
N01843           6.3024       6.0493     0 0 20
N02304           11.7632      33.2830    0 0 20
N00706           30.9986      18.5146    0 0 20
N02495           1.2860       1.8444     0 0 20
N01698           4.9128       2.8307     0 0 20
N01936           8.9460       15.4493    0 0 20
N00280           6.4655       1.0620     0 0 20
N02653           7.5764       5.0602     0 0 20
N01287           11.8955      0.5000     0 0 20
N00098           7.7350       0.5000     0 0 20
N01730           5.0247       1.0654     0 0 20
N02178           2.5997       1.9700     0 0 20
N00109           3.1107       2.6214     0 0 20
N02705           3.6056       1.9687     0 0 20
N02707           3.5837       2.1289     0 0 20
N01818           7.7954       32.6858    0 0 20
N01823           7.7648       13.5715    0 0 20
N01450           5.7574       1.0925     0 0 20
N01651           7.5350       1.3033     0 0 20
N01117           5.6945       3.7367     0 0 20
N00870           3.6770       8.8346     0 0 20
N01860           5.8245       6.1363     0 0 20
N00570           11.3964      9.6666     0 0 20
N00830           6.4809       4.4560     0 0 20
N00490           14.9707      2.3226     0 0 20
N01943           3.7171       3.8425     0 0 20
N01034           5.6174       2.2323     0 0 20
N02326           3.5431       1.0006     0 0 20
N02062           14.6640      2.7110     0 0 20
N00244           3.4625       3.2409     0 0 20
N00816           4.7341       0.9648     0 0 20
N02725           8.0779       5.2037     0 0 20
N00798           3.4971       2.0970     0 0 20
N00178           3.9211       1.2055     0 0 20
N02486           3.6416       1.8627     0 0 20
N01354           7.3845       29.7879    0 0 20
N02160           5.5999       1.4478     0 0 20
N02379           2.5699       2.0498     0 0 20
N01273           3.6844       1.8879     0 0 20
N00431           11.5016      12.7122    0 0 20
N00808           4.6611       7.8858     0 0 20
N02048           10.9796      6.6326     0 0 20
N02427           3.6560       10.1875    0 0 20
N01267           7.7108       10.3670    0 0 20
N01409           8.7063       6.3838     0 0 20
N01954           4.0188       1.1801     0 0 20
N00500           14.8829      1.8768     0 0 20
N01666           8.5234       3.8721     0 0 20
N02675           7.0578       5.1357     0 0 20
N01729           4.9341       1.6247     0 0 20
N01765           4.9740       1.6423     0 0 20
N00357           3.5920       7.1955     0 0 20
N01874           4.0288       1.6701     0 0 20
N02682           7.9828       13.1821    0 0 20
N00823           3.4371       3.0104     0 0 20
N01288           8.6034       4.4309     0 0 20
N02248           17.6646      3.7579     0 0 20
N02091           24.4330      8.1354     0 0 20
N00157           8.6849       15.8064    0 0 20
N02170           5.2895       8.2309     0 0 20
N01334           4.0813       3.2659     0 0 20
N01770           4.6911       1.7299     0 0 20
N01668           8.4022       4.4714     0 0 20
N00879           3.5480       0.9703     0 0 20
N01330           11.4157      9.5393     0 0 20
N00006           7.7463       0.5552     0 0 20
N00063           3.5023       5.7355     0 0 20
N00293           6.6121       1.6864     0 0 20
N01942           3.6371       2.2343     0 0 20
N01645           3.4576       4.4592     0 0 20
N00393           3.1304       3.6701     0 0 20
N02166           5.4114       10.2350    0 0 20
N02632           8.6796       10.2326    0 0 20
N00226           4.8014       10.5180    0 0 20
N00316           31.1787      1.8757     0 0 20
N00667           25.5097      11.7977    0 0 20
N00571           11.3900      8.0366     0 0 20
N01968           6.1446       3.9939     0 0 20
N00542           11.8447      3.6258     0 0 20
N02699           3.7113       0.8009     0 0 20
N00802           3.7980       4.9290     0 0 20
N00679           6.4895       3.8639     0 0 20
N02497           5.8869       2.5331     0 0 20
N01930           8.1838       2.0000     0 0 20
N02650           7.6565       2.6973     0 0 20
N02470           8.5618       1.5239     0 0 20
N01931           3.8451       4.2377     0 0 20
N00633           0.9640       3.6009     0 0 20
N00656           3.9644       0.5920     0 0 20
N00241           3.5125       2.8269     0 0 20
N01067           4.4847       2.5681     0 0 20
N00444           11.5957      11.6746    0 0 20
N02616           3.2584       1.4353     0 0 20
N02096           7.8144       22.5554    0 0 20
N00108           3.1888       2.5528     0 0 20
N00192           3.6885       1.4381     0 0 20
N00948           19.5207      29.1462    0 0 20
N00605           7.2988       23.2545    0 0 20
N00541           12.1087      4.2109     0 0 20
N00568           11.4970      14.0174    0 0 20
N02050           7.4511       6.8879     0 0 20
N00423           12.1311      2.6700     0 0 20
N01455           3.5563       1.0247     0 0 20
N02140           8.4982       5.7737     0 0 20
N01283           30.7357      15.8963    0 0 20
N02722           8.5422       11.7236    0 0 20
N00012           7.2124       2.4437     0 0 20
N01553           6.2852       4.0570     0 0 20
N00597           13.7965      9.9265     0 0 20
N00778           7.2232       26.2056    0 0 20
N00638           1.3060       2.9684     0 0 20
N02765           3.4983       2.8554     0 0 20
N02058           14.6913      0.5000     0 0 20
N00305           6.6150       1.9009     0 0 20
N00112           2.9850       3.0645     0 0 20
N02697           8.6641       17.0994    0 0 20
N02748           33.2307      9.0528     0 0 20
N01475           3.7008       0.5967     0 0 20
N01024           8.2193       20.8147    0 0 20
N02793           11.7750      8.0287     0 0 20
N00245           3.4504       2.6117     0 0 20
N00696           6.7913       9.9701     0 0 20
N01783           5.2471       1.3751     0 0 20
N01058           7.3445       23.7355    0 0 20
N00589           13.8265      6.5661     0 0 20
N01923           8.3055       4.2162     0 0 20
N02777           15.0224      3.5631     0 0 20
N00057           8.6018       3.3659     0 0 20
N00041           5.7193       2.6381     0 0 20
N02507           13.7665      9.9330     0 0 20
N01702           4.5866       1.9351     0 0 20
N01272           3.6056       2.1667     0 0 20
N02542           19.6738      7.6053     0 0 20
N01636           1.9121       2.1319     0 0 20
N02812           3.6929       3.3741     0 0 20
N00647           2.2375       1.7961     0 0 20
N02214           17.7592      5.7346     0 0 20
N01444           6.2840       9.2862     0 0 20
N02416           33.1569      6.5869     0 0 20
N01513           13.9762      7.2261     0 0 20
N00104           3.9688       1.2301     0 0 20
N00983           16.7587      6.8392     0 0 20
N01033           5.5945       7.9682     0 0 20
N00997           16.7687      6.6134     0 0 20
N01947           3.5695       2.9853     0 0 20
N02199           4.4299       2.3354     0 0 20
N00136           1.9037       4.4914     0 0 20
N02314           2.9388       3.4622     0 0 20
N01063           17.5743      5.9583     0 0 20
N02263           17.3812      4.4128     0 0 20
N00722           7.5435       16.3643    0 0 20
N01743           4.9132       1.5836     0 0 20
N00483           14.9777      3.2538     0 0 20
N01432           6.6250       0.5000     0 0 20
N01934           3.6929       3.9257     0 0 20
N02122           8.4594       3.7661     0 0 20
N00267           3.7636       2.2625     0 0 20
N02510           13.6771      8.5879     0 0 20
N01081           2.9744       2.0000     0 0 20
N01999           6.0846       3.3305     0 0 20
N00543           11.7344      2.7857     0 0 20
N02238           17.6738      13.7285    0 0 20
N00538           12.1058      3.3018     0 0 20
N00449           11.9589      2.5613     0 0 20
N02133           8.3394       3.3611     0 0 20
N01053           33.4997      8.2524     0 0 20
N02464           8.5653       1.8555     0 0 20
N00263           3.7475       3.9889     0 0 20
N00372           1.1485       3.1440     0 0 20
N01922           6.5119       4.0123     0 0 20
N00092           3.4215       2.0000     0 0 20
N00813           4.6894       6.5499     0 0 20
N00151           3.0345       2.8891     0 0 20
N00603           7.4530       30.1968    0 0 20
N02566           20.4285      1.0027     0 0 20
N01481           4.3852       2.7629     0 0 20
N01982           17.8063      3.3486     0 0 20
N00334           3.7583       3.4038     0 0 20
N02589           13.9065      7.8125     0 0 20
N01865           5.6945       3.6023     0 0 20
N02590           13.8065      9.1283     0 0 20
N02258           17.6373      1.2121     0 0 20
N01949           3.6731       3.3959     0 0 20
N02565           3.5475       2.9134     0 0 20
N02672           6.9746       5.9787     0 0 20
N02174           2.9073       1.8136     0 0 20
N02092           24.3225      3.8334     0 0 20
N01336           30.7440      17.9872    0 0 20
N01516           7.1824       2.3495     0 0 20
N01347           3.7734       1.7256     0 0 20
N02567           20.3431      0.6354     0 0 20
N02613           5.9382       4.3286     0 0 20
N00286           5.7180       1.3825     0 0 20
N00026           5.2878       2.5067     0 0 20
N00641           1.9558       1.9163     0 0 20
N01256           11.6615      13.3274    0 0 20
N01863           5.7945       2.5187     0 0 20
N01278           31.1870      0.5000     0 0 20
N02254           17.5750      3.5050     0 0 20
N02049           7.5365       5.4983     0 0 20
N00400           3.8818       1.1033     0 0 20
N01076           8.4007       5.1296     0 0 20
N00196           3.6368       0.6607     0 0 20
N01724           4.9245       1.6159     0 0 20
N00208           3.8748       4.0651     0 0 20
N01941           3.6095       2.2545     0 0 20
N01596           13.8489      6.7411     0 0 20
N01898           8.1247       9.1756     0 0 20
N01677           3.8668       1.0523     0 0 20
N00399           2.9647       2.5642     0 0 20
N01469           4.0913       1.1481     0 0 20
N01355           4.6692       1.9008     0 0 20
N01271           4.8154       0.8835     0 0 20
N01946           3.6060       3.5948     0 0 20
N02688           6.8451       12.5626    0 0 20
N02424           8.8468       13.2186    0 0 20
N00086           3.6411       1.0000     0 0 20
N02118           8.5505       0.5146     0 0 20
N01772           4.6823       1.7387     0 0 20
N02305           25.5677      20.4266    0 0 20
N01577           5.0548       1.0198     0 0 20
N01734           4.8928       1.6607     0 0 20
N00209           3.8051       4.4809     0 0 20
N00169           3.8093       2.3652     0 0 20
N01615           2.1976       1.8800     0 0 20
N01340           3.9275       4.7247     0 0 20
N01437           6.3867       4.2265     0 0 20
N00387           2.9123       3.2158     0 0 20
N01128           3.4407       1.7975     0 0 20
N00454           12.1823      0.5000     0 0 20
N00297           6.4792       6.7096     0 0 20
N02820           4.8926       10.3881    0 0 20
N00380           3.3469       1.6170     0 0 20
N02269           20.3221      26.2826    0 0 20
N01951           3.5578       1.5688     0 0 20
N01421           8.7938       2.1520     0 0 20
N01617           2.0678       2.1788     0 0 20
N02499           5.9074       3.8295     0 0 20
N00887           5.9450       3.9299     0 0 20
N00335           3.6883       3.1034     0 0 20
N01917           8.7017       10.5598    0 0 20
N00710           7.4629       15.2935    0 0 20
N01317           8.3710       18.7205    0 0 20
N02519           7.1880       4.2250     0 0 20
N01292           3.8625       3.6379     0 0 20
N00988           14.9681      3.5393     0 0 20
N00290           5.0357       6.2525     0 0 20
N01100           3.1330       2.0096     0 0 20
N02723           8.6503       9.5050     0 0 20
N00505           15.1386      2.2960     0 0 20
N00623           2.8462       9.7055     0 0 20
N00377           3.0229       3.1765     0 0 20
N01103           3.6963       0.8220     0 0 20
N01631           2.0676       2.1790     0 0 20
N00498           15.0778      2.4468     0 0 20
N01841           8.9212       3.0199     0 0 20
N00612           24.0535      2.8750     0 0 20
N02710           8.6575       3.7379     0 0 20
N02267           19.3877      4.0255     0 0 20
N02176           3.9764       1.3010     0 0 20
N02662           7.9944       4.8964     0 0 20
N02272           19.3973      4.8635     0 0 20
N02629           4.6623       6.6923     0 0 20
N01209           8.8926       5.6106     0 0 20
N01144           11.8421      18.4632    0 0 20
N01503           11.6476      18.4446    0 0 20
N00053           10.6147      10.4338    0 0 20
N01785           4.5880       2.2374     0 0 20
N02704           3.6924       3.3672     0 0 20
N00410           11.3552      7.7356     0 0 20
N00446           11.4210      8.9787     0 0 20
N02633           8.6286       10.9241    0 0 20
N02827           19.6391      11.4642    0 0 20
N00435           25.5264      11.6559    0 0 20
N02297           20.0970      10.7393    0 0 20
N01732           5.1271       1.3577     0 0 20
N02021           11.0501      2.9454     0 0 20
N02022           8.1251       6.5877     0 0 20
N01216           25.6687      24.1741    0 0 20
N00009           7.4429       2.2733     0 0 20
N02829           19.2561      9.2424     0 0 20
N00339           3.5375       2.9962     0 0 20
N01683           4.2777       2.0638     0 0 20
N00864           11.5382      14.7214    0 0 20
N00683           7.6994       8.8664     0 0 20
N01847           5.9983       4.4523     0 0 20
N00871           3.4451       1.1016     0 0 20
N01016           8.5242       8.1403     0 0 20
N01300           2.8964       4.3960     0 0 20
N00668           11.7121      16.5900    0 0 20
N01275           7.7204       0.9985     0 0 20
N01413           7.3783       14.7271    0 0 20
N00854           12.0394      2.4807     0 0 20
N00456           12.2031      5.7912     0 0 20
N02129           5.4749       1.5074     0 0 20
N02020           11.0524      1.4624     0 0 20
N01899           6.5155       5.3327     0 0 20
N01249           1.9263       2.1532     0 0 20
N01825           8.0109       6.2394     0 0 20
N01328           11.3762      4.9934     0 0 20
N01561           11.8157      1.5952     0 0 20
N02668           3.9541       5.7251     0 0 20
N02681           7.9277       7.0035     0 0 20
N02311           3.5161       1.7401     0 0 20
N01691           5.7798       0.6996     0 0 20
N02737           8.5645       11.3896    0 0 20
N02586           8.7003       8.8265     0 0 20
N02484           3.6566       1.6661     0 0 20
N02718           3.8074       4.4340     0 0 20
N01944           4.2166       1.3769     0 0 20
N02245           17.3570      4.2906     0 0 20
N01564           13.8913      7.0799     0 0 20
N00440           11.6616      18.9974    0 0 20
N00784           33.1534      7.5999     0 0 20
N02146           3.7341       5.6934     0 0 20
N02610           3.4726       2.4465     0 0 20
N01274           3.6907       1.8615     0 0 20
N00480           14.8546      2.7414     0 0 20
N02329           3.9807       1.7933     0 0 20
N01822           5.4674       3.2675     0 0 20
N01378           8.9150       5.5443     0 0 20
N01493           3.8459       2.7839     0 0 20
N02120           8.2982       3.7840     0 0 20
N01533           17.0742      5.8143     0 0 20
N00279           6.5137       0.5271     0 0 20
N00665           25.4416      23.5603    0 0 20
N02488           2.6088       2.4402     0 0 20
N00216           3.3661       7.2195     0 0 20
N00537           5.4150       7.8980     0 0 20
N01928           3.9253       1.2330     0 0 20
N00796           3.8017       1.3249     0 0 20
N00376           3.0764       3.5401     0 0 20
N00378           3.1436       4.1774     0 0 20
N01630           1.9841       1.8881     0 0 20
N02502           12.1715      5.1161     0 0 20
N00486           14.9966      2.2983     0 0 20
N00171           3.7325       1.3941     0 0 20
N02666           7.7037       3.0687     0 0 20
N01072           8.0615       7.1136     0 0 20
N01774           4.6727       1.7483     0 0 20
N00004           3.0792       2.6529     0 0 20
N00283           6.3523       0.7337     0 0 20
N00124           3.2080       2.3581     0 0 20
N00962           3.8714       1.5607     0 0 20
N00181           3.9014       1.2252     0 0 20
N02647           7.7790       5.5049     0 0 20
N00152           2.9897       3.0283     0 0 20
N00318           7.7336       19.6257    0 0 20
N00652           1.0264       3.2047     0 0 20
N02080           6.9229       6.4038     0 0 20
N01727           4.8327       1.5883     0 0 20
N00980           5.2860       1.1909     0 0 20
N00610           33.2083      10.6754    0 0 20
N00876           5.7027       2.7005     0 0 20
N01425           6.2665       5.0592     0 0 20
N00614           24.1317      4.8185     0 0 20
N01367           8.6036       6.2452     0 0 20
N01697           4.8028       4.4865     0 0 20
N01162           1.3323       2.7418     0 0 20
N01158           25.4192      23.6854    0 0 20
N02693           7.1050       18.1470    0 0 20
N01735           5.0241       2.2611     0 0 20
N01811           6.3076       4.4353     0 0 20
N02833           16.3551      13.5678    0 0 20
N02253           17.2716      4.5047     0 0 20
N01071           7.9066       3.7085     0 0 20
N02809           3.9395       4.0603     0 0 20
N01937           8.8551       14.3382    0 0 20
N00634           1.1755       2.9215     0 0 20
N01054           33.5897      5.4413     0 0 20
N00904           3.9866       0.9500     0 0 20
N01850           6.0291       4.9865     0 0 20
N01537           3.5512       2.8934     0 0 20
N01547           3.7336       3.0581     0 0 20
N02680           7.9136       7.9432     0 0 20
N02171           5.2122       10.6389    0 0 20
N02409           15.3253      11.2309    0 0 20
N00163           7.0616       5.3581     0 0 20
N00639           2.2512       1.7054     0 0 20
N02646           7.4530       40.1116    0 0 20
N00826           4.7476       11.2386    0 0 20
N01527           16.7139      7.3146     0 0 20
N02605           3.6890       0.6085     0 0 20
N02412           11.9274      31.7280    0 0 20
N02066           14.3634      13.5062    0 0 20
N00964           3.7433       1.3833     0 0 20
N01462           7.0674       4.8879     0 0 20
N01709           4.6146       2.4262     0 0 20
N01753           3.7015       2.2379     0 0 20
N00206           3.8275       4.6443     0 0 20
N02287           11.5328      11.7819    0 0 20
N02072           7.7914       5.4925     0 0 20
N02446           3.4149       2.2154     0 0 20
N00674           3.8429       2.6486     0 0 20
N01602           33.4104      16.3944    0 0 20
N01294           3.0635       3.2017     0 0 20
N02821           4.8120       11.3667    0 0 20
N01068           15.2945      3.2395     0 0 20
N00225           4.6352       6.7194     0 0 20
N02242           17.3712      4.6957     0 0 20
N02622           3.6508       1.4758     0 0 20
N02716           3.8096       3.3574     0 0 20
N01477           3.4626       2.9284     0 0 20
N02701           5.6335       1.8577     0 0 20
N00453           12.1411      2.6033     0 0 20
N01030           5.6357       2.1680     0 0 20
N00131           2.1105       4.3088     0 0 20
N00338           5.8661       2.4986     0 0 20
N00412           7.7548       18.3831    0 0 20
N00949           19.5631      28.0287    0 0 20
N02232           17.6738      14.3133    0 0 20
N00451           12.0923      1.9294     0 0 20
N01471           2.6497       1.9200     0 0 20
N01579           5.2778       2.4594     0 0 20
N01853           5.9251       3.6497     0 0 20
N01531           16.3604      9.0201     0 0 20
N01346           3.9241       1.1065     0 0 20
N02036           10.8291      7.8047     0 0 20
N00096           3.4932       3.4662     0 0 20
N00257           3.7999       3.6277     0 0 20
N02442           3.5061       1.7501     0 0 20
N00391           3.1892       3.3703     0 0 20
N01826           7.7547       2.8114     0 0 20
N01752           3.7721       3.6990     0 0 20
N01566           13.8374      8.7124     0 0 20
N00167           4.0313       1.6002     0 0 20
N00702           7.4229       13.3995    0 0 20
N02514           15.2018      2.2328     0 0 20
N01883           3.7078       10.1661    0 0 20
N00155           8.6957       14.7979    0 0 20
N01711           5.0264       2.0294     0 0 20
N02689           7.1503       20.4219    0 0 20
N00629           1.0689       3.1093     0 0 20
N00532           8.6195       10.0482    0 0 20
N02612           5.9347       4.4380     0 0 20
N01607           3.6910       2.8327     0 0 20
N00033           11.7114      12.1963    0 0 20
N00133           2.0211       4.4412     0 0 20
N02277           11.8032      9.1753     0 0 20
N01084           3.5357       2.7418     0 0 20
N00074           15.0702      4.3297     0 0 20
N01866           5.7845       2.5287     0 0 20
N02513           15.2018      2.2328     0 0 20
N01240           17.5608      3.3398     0 0 20
N01453           6.6098       1.0912     0 0 20
N00611           33.1322      7.2190     0 0 20
N01639           2.1352       1.7369     0 0 20
N00396           3.1304       4.0578     0 0 20
N00801           3.8392       3.1102     0 0 20
N02645           7.7990       6.0725     0 0 20
N02352           3.8518       0.7917     0 0 20
N02413           11.8610      35.5076    0 0 20
N02798           8.6107       12.5923    0 0 20
N02164           5.3114       7.0265     0 0 20
N01659           3.7738       1.3528     0 0 20
N02810           5.0401       6.5792     0 0 20
N01009           16.6577      4.3466     0 0 20
N01658           3.8435       4.7954     0 0 20
N01514           7.3456       3.7540     0 0 20
N01015           8.5226       7.3053     0 0 20
N02548           19.7350      5.8096     0 0 20
N00414           7.8254       26.6954    0 0 20
N02576           3.8332       0.6776     0 0 20
N00496           14.9455      1.9691     0 0 20
N02108           7.7852       21.0821    0 0 20
N02676           7.9325       6.4527     0 0 20
N00434           11.4041      9.9343     0 0 20
N02655           7.6926       4.0093     0 0 20
N01747           5.0437       3.6226     0 0 20
N00670           33.0065      4.7773     0 0 20
N00256           3.7275       2.2986     0 0 20
N00340           3.4647       2.2536     0 0 20
N01626           3.1654       2.7078     0 0 20
N01552           6.3523       1.9621     0 0 20
N02052           8.9777       13.6900    0 0 20
N01655           3.8828       3.0666     0 0 20
N01805           6.6308       3.7627     0 0 20
N01581           8.0931       8.9459     0 0 20
N02563           8.3923       20.2463    0 0 20
N02392           4.5387       2.2380     0 0 20
N01384           1.1931       3.2398     0 0 20
N02635           8.6996       10.0039    0 0 20
N01333           3.9921       1.4621     0 0 20
N02740           8.4005       13.1577    0 0 20
N02665           7.8756       4.6204     0 0 20
N02426           3.6973       11.6280    0 0 20
N02278           16.7323      6.6268     0 0 20
N00292           6.4384       7.5324     0 0 20
N00649           1.2050       3.0318     0 0 20
N02603           3.4861       1.7701     0 0 20
N01814           9.0912       1.6308     0 0 20
N00224           4.7158       3.3379     0 0 20
N00782           33.3492      11.3775    0 0 20
N01837           8.9071       3.0511     0 0 20
N00275           6.4259       2.8631     0 0 20
N00350           5.5014       1.6815     0 0 20
N01619           3.9134       2.4463     0 0 20
N02540           3.1776       2.9286     0 0 20
N01296           3.9082       4.2661     0 0 20
N01497           3.1125       2.1688     0 0 20
N02625           4.7790       8.6549     0 0 20
N00403           3.3953       1.2662     0 0 20
N00501           14.9242      2.0142     0 0 20
N00205           3.9402       3.9140     0 0 20
N01802           6.5308       4.3910     0 0 20
N02801           3.7700       3.8525     0 0 20
N00276           6.3759       2.7585     0 0 20
N01315           8.5209       8.4700     0 0 20
N02168           5.3661       7.5962     0 0 20
N02474           3.7933       1.5683     0 0 20
N01332           30.7473      18.4390    0 0 20
N00392           3.2804       4.5946     0 0 20
N02367           2.4577       2.0000     0 0 20
N02463           8.7513       5.4551     0 0 20
N01282           7.4948       34.6710    0 0 20
N00872           3.5915       0.9960     0 0 20
N00174           3.8304       1.2962     0 0 20
N02181           2.5697       2.0000     0 0 20
N00809           4.6211       6.7963     0 0 20
N01062           17.3712      4.4760     0 0 20
N01551           6.3806       1.0044     0 0 20
N00803           3.8495       6.0561     0 0 20
N02076           7.9136       6.6337     0 0 20
N01851           5.9391       4.3685     0 0 20
N02056           3.8942       5.3352     0 0 20
N02104           7.8419       23.6464    0 0 20
N01032           5.4674       2.7755     0 0 20
N00055           12.1323      2.6857     0 0 20
N01080           3.0848       2.8020     0 0 20
N00130           2.1552       1.8589     0 0 20
N01056           7.3023       23.0553    0 0 20
N02301           20.1894      17.6096    0 0 20
N02494           3.7698       1.1681     0 0 20
N00255           3.7722       4.2746     0 0 20
N01307           8.3622       18.5622    0 0 20
N02614           5.4451       2.6760     0 0 20
N01519           3.8359       1.5095     0 0 20
N01757           4.3718       2.1620     0 0 20
N01669           8.4963       3.8992     0 0 20
N02175           3.0092       2.0468     0 0 20
N01952           3.6285       1.4981     0 0 20
N00831           6.4448       2.7370     0 0 20
N00717           7.7836       21.2769    0 0 20
N02841           15.3039      5.9149     0 0 20
N02126           8.4586       9.4061     0 0 20
N00894           3.2156       7.7852     0 0 20
N01704           4.6324       2.5873     0 0 20
N00191           3.7008       1.4258     0 0 20
N01318           7.4678       10.0434    0 0 20
N00514           17.7796      0.6266     0 0 20
N00314           30.7381      18.3125    0 0 20
N00648           1.1245       3.0760     0 0 20
N00088           0.9747       3.5145     0 0 20
N00116           7.2286       3.8949     0 0 20
N01661           4.4712       3.0576     0 0 20
N02547           11.8944      9.0841     0 0 20
N00381           3.2663       3.6183     0 0 20
N01319           8.5242       7.2634     0 0 20
N01706           4.4959       1.9889     0 0 20
N00479           14.7598      2.0000     0 0 20
N00686           7.7331       7.1403     0 0 20
N00250           3.4157       9.0906     0 0 20
N00429           11.6116      10.7696    0 0 20
N00955           5.1736       2.4313     0 0 20
N01637           2.0852       1.7869     0 0 20
N00941           3.4873       2.9823     0 0 20
N02290           20.1131      13.2001    0 0 20
N00165           8.4618       20.2840    0 0 20
N01265           10.9296      5.9722     0 0 20
N01916           8.4083       5.0918     0 0 20
N00235           1.1125       3.1586     0 0 20
N00661           2.9309       2.2387     0 0 20
N01623           3.3871       1.1705     0 0 20
N01839           8.6861       4.5396     0 0 20
N01911           3.8775       5.1499     0 0 20
N02448           8.2696       8.8356     0 0 20
N02025           10.7314      10.1037    0 0 20
N02639           7.7490       5.5920     0 0 20
N02428           3.8178       2.2924     0 0 20
N02690           7.0560       17.9642    0 0 20
N00777           7.3188       23.3314    0 0 20
N01366           8.6318       5.6683     0 0 20
N02713           3.6990       3.0927     0 0 20
N01881           4.6306       3.2397     0 0 20
N02472           5.4697       1.5126     0 0 20
N01436           6.4126       2.3641     0 0 20
N00084           3.5555       0.9883     0 0 20
N02815           5.8198       0.5000     0 0 20
N00720           7.6380       17.2568    0 0 20
N02504           11.5388      8.0428     0 0 20
N01029           3.6307       2.2077     0 0 20
N00549           11.8947      3.7171     0 0 20
N01460           7.0974       4.1461     0 0 20
N02742           8.4722       11.3268    0 0 20
N02071           7.8106       5.7066     0 0 20
N01796           6.4682       3.8473     0 0 20
N00489           8.1378       9.8950     0 0 20
N01908           8.6194       5.8575     0 0 20
N02191           2.1123       2.1473     0 0 20
N01044           8.4603       38.8490    0 0 20
N02703           3.7104       4.5803     0 0 20
N00590           13.7465      8.8573     0 0 20
N02618           3.4314       1.0279     0 0 20
N01461           7.1257       3.6512     0 0 20
N00445           11.7161      17.0479    0 0 20
N01998           6.1479       5.4099     0 0 20
N01498           3.2539       6.6486     0 0 20
N00106           4.0520       1.1469     0 0 20
N02107           7.8168       24.3544    0 0 20
N00075           15.1207      7.0875     0 0 20
N00409           11.4134      7.6713     0 0 20
N00718           7.7212       19.7616    0 0 20
N00212           0.9764       3.9192     0 0 20
N01393           3.5332       6.1317     0 0 20
N00246           3.4857       5.3492     0 0 20
N02083           3.5641       0.9542     0 0 20
N00353           3.5250       5.0579     0 0 20
N01386           2.6738       1.8960     0 0 20
N02570           11.6352      10.8240    0 0 20
N00800           3.7995       4.3432     0 0 20
N00452           12.1335      2.4964     0 0 20
N01304           8.6831       12.2719    0 0 20
N01007           11.5164      8.0652     0 0 20
N00817           4.8147       0.8842     0 0 20
N02533           7.3635       25.9331    0 0 20
N00433           11.5370      14.2883    0 0 20
N00484           14.9666      2.2066     0 0 20
N01500           4.9448       1.3976     0 0 20
N00300           6.6392       0.5067     0 0 20
N01894           7.7507       15.8459    0 0 20
N00617           8.0765       28.9031    0 0 20
N02271           19.3785      4.0348     0 0 20
N01388           2.7943       1.9266     0 0 20
N01987           8.1166       6.9941     0 0 20
N00525           17.8079      3.4995     0 0 20
N02445           3.4061       2.2242     0 0 20
N00358           3.8459       2.5608     0 0 20
N02779           14.9578      3.5025     0 0 20
N01621           3.8041       1.6305     0 0 20
N02005           8.1966       6.5691     0 0 20
N00258           3.8475       2.6580     0 0 20
N01066           4.5480       2.2774     0 0 20
N01443           5.9652       3.5423     0 0 20
N00787           3.4142       0.8862     0 0 20
N00422           3.4090       1.1174     0 0 20
N00415           8.7926       4.1469     0 0 20
N01494           2.7941       2.4838     0 0 20
N00811           4.6307       6.7239     0 0 20
N02766           3.4177       2.3993     0 0 20
N01977           11.0741      8.1048     0 0 20
N01534           17.0770      5.8392     0 0 20
N00285           4.6685       2.5408     0 0 20
N01737           5.0389       2.2722     0 0 20
N01771           4.8127       1.6138     0 0 20
N01903           8.8244       13.8514    0 0 20
N01476           3.4426       2.3471     0 0 20
N00348           3.5147       2.2206     0 0 20
N02780           15.0054      4.0606     0 0 20
N02256           17.5933      10.5428    0 0 20
N00402           3.9729       2.1990     0 0 20
N00724           8.5526       6.5841     0 0 20
N00829           4.7552       1.8147     0 0 20
N02019           16.6377      5.8605     0 0 20
N00272           6.2936       4.1724     0 0 20
N01078           8.8385       13.9439    0 0 20
N01075           8.0609       7.4639     0 0 20
N02231           17.6814      8.0140     0 0 20
N00298           6.4323       0.6267     0 0 20
N00430           11.6192      15.4912    0 0 20
N00607           33.4858      7.7499     0 0 20
N01932           3.9275       4.4196     0 0 20
N00952           19.3061      15.9636    0 0 20
N01028           3.6202       2.0683     0 0 20
N01512           8.6828       12.5744    0 0 20
N02310           20.2724      26.4766    0 0 20
N01608           3.7550       2.3997     0 0 20
N02471           5.4697       1.5126     0 0 20
N00458           16.5989      7.8502     0 0 20
N02696           4.0441       4.6856     0 0 20
N02372           2.7841       2.4937     0 0 20
N01127           3.4031       9.3431     0 0 20
N01055           7.3829       28.8685    0 0 20
N01277           7.7783       20.7994    0 0 20
N02286           11.5645      9.7808     0 0 20
N00859           16.7703      5.2817     0 0 20
N01060           33.4774      7.7953     0 0 20
N00007           7.6550       1.2413     0 0 20
N00947           19.4668      27.8184    0 0 20
N00512           15.0578      2.6422     0 0 20
N02728           8.8124       7.5701     0 0 20
N02796           3.6601       1.4665     0 0 20
N02059           14.5969      4.2779     0 0 20
N00296           5.0673       5.4059     0 0 20
N01327           11.4469      11.4252    0 0 20
N02082           3.6241       0.9710     0 0 20
N00643           1.9568       1.9153     0 0 20
N00189           3.9136       1.2130     0 0 20
N02835           16.4520      8.2611     0 0 20
N01495           2.8882       3.3504     0 0 20
N02251           17.5792      9.7486     0 0 20
N02144           5.2936       1.0439     0 0 20
N00014           3.0804       3.5995     0 0 20
N00252           3.4998       3.1522     0 0 20
N01535           13.6210      6.9012     0 0 20
N00820           3.5443       5.2217     0 0 20
N02543           19.8468      4.6087     0 0 20
N02727           8.7020       9.7273     0 0 20
N01793           6.4400       3.3123     0 0 20
N02620           3.4885       1.8373     0 0 20
N01618           3.8878       0.7924     0 0 20
N00974           24.1045      3.0931     0 0 20
N01082           3.3969       1.4216     0 0 20
N00695           7.1864       21.4098    0 0 20
N00385           3.0581       2.4502     0 0 20
N02241           17.6714      11.8564    0 0 20
N02317           3.2216       2.1244     0 0 20
N02617           3.4130       0.8240     0 0 20

[OUTFALLS]
OUT01            0.9024       NORMAL  NO
OUT02            3.4115       NORMAL  NO
OUT03            7.6494       NORMAL  NO
OUT04            4.2377       NORMAL  NO
OUT05            11.4009      NORMAL  NO
OUT06            13.3121      NORMAL  NO
OUT07            5.6704       NORMAL  NO
OUT08            32.9649      NORMAL  NO
OUT09            2.4477       NORMAL  NO
OUT10            2.5597       NORMAL  NO
OUT11            5.0806       NORMAL  NO
OUT12            25.1773      NORMAL  NO
OUT13            19.2461      NORMAL  NO
OUT14            4.2830       NORMAL  NO
OUT15            8.1738       NORMAL  NO
OUT16            17.2616      NORMAL  NO
OUT17            23.9800      NORMAL  NO
OUT18            2.9644       NORMAL  NO
OUT19            3.4680       NORMAL  NO
OUT20            8.6400       NORMAL  NO
OUT21            20.0670      NORMAL  NO
OUT22            3.4326       NORMAL  NO
OUT23            7.0406       NORMAL  NO
OUT24            8.0679       NORMAL  NO
OUT25            6.7180       NORMAL  NO
OUT26            5.3114       NORMAL  NO
OUT27            14.2436      NORMAL  NO
OUT28            3.2357       NORMAL  NO
OUT29            3.4771       NORMAL  NO
OUT30            4.6311       NORMAL  NO
OUT31            6.0746       NORMAL  NO
OUT32            3.1556       NORMAL  NO
OUT33            14.7498      NORMAL  NO
OUT34            16.5421      NORMAL  NO
OUT35            10.5824      NORMAL  NO
OUT36            3.5487       NORMAL  NO
OUT37            5.0836       NORMAL  NO
OUT38            6.1662       NORMAL  NO
OUT39            11.7244      NORMAL  NO
OUT40            7.3322       NORMAL  NO
OUT41            16.3004      NORMAL  NO
OUT42            8.2093       NORMAL  NO
OUT43            30.7057      NORMAL  NO
OUT44            1.8621       NORMAL  NO
OUT45            2.7667       NORMAL  NO
OUT46            3.2283       NORMAL  NO
OUT47            8.4605       NORMAL  NO
OUT48            11.3152      NORMAL  NO

[CONDUITS]
G00001           N00001           N00013           82.462     0.0130   0 0 0 0
G00002           N00002           N00063           89.443     0.0130   0 0 0 0
G00003           N00003           N00092           82.462     0.0130   0 0 0 0
G00004           N00004           N00151           89.443     0.0130   0 0 0 0
G00005           N00005           N00004           388.330    0.0130   0 0 0 0
G00006           N00006           N01374           82.462     0.0130   0 0 0 0
G00007           N00007           N00069           100.000    0.0130   0 0 0 0
G00008           N00008           N01514           184.391    0.0130   0 0 0 0
G00009           N00009           N01650           56.569     0.0130   0 0 0 0
G00010           N00010           N00011           120.000    0.0130   0 0 0 0
G00011           N00011           N00012           121.655    0.0130   0 0 0 0
G00012           N00012           N01516           60.000     0.0130   0 0 0 0
G00013           N00014           N00385           44.721     0.0130   0 0 0 0
G00014           N00015           N00070           120.000    0.0130   0 0 0 0
G00015           N00016           N01496           82.462     0.0130   0 0 0 0
G00016           N00017           N00398           56.569     0.0130   0 0 0 0
G00017           N00018           N00021           107.703    0.0130   0 0 0 0
G00018           N00019           N00018           160.000    0.0130   0 0 0 0
G00019           N00020           N00022           164.924    0.0130   0 0 0 0
G00020           N00021           N01033           100.000    0.0130   0 0 0 0
G00021           N00022           N01033           44.721     0.0130   0 0 0 0
G00022           N00023           N02308           72.111     0.0130   0 0 0 0
G00023           N00024           N00863           220.907    0.0130   0 0 0 0
G00024           N00025           N00991           184.391    0.0130   0 0 0 0
G00025           N00026           N01579           20.000     0.0130   0 0 0 0
G00026           N00027           N00026           161.245    0.0130   0 0 0 0
G00027           N00031           N00434           447.214    0.0130   0 0 0 0
G00028           N00032           N02283           72.111     0.0130   0 0 0 0
G00029           N00033           N01000           28.284     0.0130   0 0 0 0
G00030           N00034           N02284           56.569     0.0130   0 0 0 0
G00031           N00035           N00984           100.000    0.0130   0 0 0 0
G00032           N00036           N00035           160.000    0.0130   0 0 0 0
G00033           N00040           N01115           82.462     0.0130   0 0 0 0
G00034           N00041           N00020           40.000     0.0130   0 0 0 0
G00035           N00045           N02736           89.443     0.0130   0 0 0 0
G00036           N00053           N01259           44.721     0.0130   0 0 0 0
G00037           N00054           N01072           60.000     0.0130   0 0 0 0
G00038           N00055           N00451           80.000     0.0130   0 0 0 0
G00039           N00056           N00057           460.000    0.0130   0 0 0 0
G00040           N00057           N02470           80.000     0.0130   0 0 0 0
G00041           N00063           N01645           89.443     0.0130   0 0 0 0
G00042           N00064           N00013           28.284     0.0130   0 0 0 0
G00043           N00065           N01647           28.284     0.0130   0 0 0 0
G00044           N00066           N01515           63.246     0.0130   0 0 0 0
G00045           N00067           N00011           100.000    0.0130   0 0 0 0
G00046           N00068           N01651           40.000     0.0130   0 0 0 0
G00047           N00069           N00068           100.000    0.0130   0 0 0 0
G00048           N00070           N01496           84.853     0.0130   0 0 0 0
G00049           N00071           N00376           28.284     0.0130   0 0 0 0
G00050           N00074           N02781           44.721     0.0130   0 0 0 0
G00051           N00075           N02406           82.462     0.0130   0 0 0 0
G00052           N00076           N02547           220.000    0.0130   0 0 0 0
G00053           N00083           N00084           184.391    0.0130   0 0 0 0
G00054           N00084           N02501           44.721     0.0130   0 0 0 0
G00055           N00085           N00084           126.491    0.0130   0 0 0 0
G00056           N00086           N00085           44.721     0.0130   0 0 0 0
G00057           N00087           N00088           260.768    0.0130   0 0 0 0
G00058           N00088           N01391           80.000     0.0130   0 0 0 0
G00059           N00089           N00237           100.000    0.0130   0 0 0 0
G00060           N00090           N00093           82.462     0.0130   0 0 0 0
G00061           N00091           N01393           63.246     0.0130   0 0 0 0
G00062           N00093           N00091           60.000     0.0130   0 0 0 0
G00063           N00094           N00097           40.000     0.0130   0 0 0 0
G00064           N00095           N00092           40.000     0.0130   0 0 0 0
G00065           N00096           N01395           63.246     0.0130   0 0 0 0
G00066           N00097           N01396           100.000    0.0130   0 0 0 0
G00067           N00098           N01374           60.000     0.0130   0 0 0 0
G00068           N00099           N01374           72.111     0.0130   0 0 0 0
G00069           N00100           N00151           72.111     0.0130   0 0 0 0
G00070           N00101           N00124           89.443     0.0130   0 0 0 0
G00071           N00102           N00005           28.284     0.0130   0 0 0 0
G00072           N00103           N00122           100.000    0.0130   0 0 0 0
G00073           N00104           N01346           89.443     0.0130   0 0 0 0
G00074           N00105           N00104           121.655    0.0130   0 0 0 0
G00075           N00106           N00105           44.721     0.0130   0 0 0 0
G00076           N00107           N00160           82.462     0.0130   0 0 0 0
G00077           N00108           N00109           156.205    0.0130   0 0 0 0
G00078           N00109           N00150           44.721     0.0130   0 0 0 0
G00079           N00110           N01945           72.111     0.0130   0 0 0 0
G00080           N00111           N01390           28.284     0.0130   0 0 0 0
G00081           N00112           N00111           178.885    0.0130   0 0 0 0
G00082           N00113           N00151           80.000     0.0130   0 0 0 0
G00083           N00114           N00115           107.703    0.0130   0 0 0 0
G00084           N00115           N00116           152.315    0.0130   0 0 0 0
G00085           N00116           N00117           116.619    0.0130   0 0 0 0
G00086           N00117           N00156           82.462     0.0130   0 0 0 0
G00087           N00118           N00117           134.164    0.0130   0 0 0 0
G00088           N00122           N00123           141.421    0.0130   0 0 0 0
G00089           N00123           N00185           84.853     0.0130   0 0 0 0
G00090           N00124           N00123           82.462     0.0130   0 0 0 0
G00091           N00125           N01388           44.721     0.0130   0 0 0 0
G00092           N00126           N00127           172.047    0.0130   0 0 0 0
G00093           N00127           N02178           82.462     0.0130   0 0 0 0
G00094           N00128           N02181           89.443     0.0130   0 0 0 0
G00095           N00130           N00131           89.443     0.0130   0 0 0 0
G00096           N00131           N00132           89.443     0.0130   0 0 0 0
G00097           N00132           N00133           89.443     0.0130   0 0 0 0
G00098           N00133           N00134           107.703    0.0130   0 0 0 0
G00099           N00134           N00135           107.703    0.0130   0 0 0 0
G00100           N00135           N01641           82.462     0.0130   0 0 0 0
G00101           N00136           N01641           63.246     0.0130   0 0 0 0
G00102           N00137           N00136           126.491    0.0130   0 0 0 0
G00103           N00138           N00644           84.853     0.0130   0 0 0 0
G00104           N00139           N00138           141.421    0.0130   0 0 0 0
G00105           N00140           N00139           140.000    0.0130   0 0 0 0
G00106           N00141           N00140           100.000    0.0130   0 0 0 0
G00107           N00142           N00154           44.721     0.0130   0 0 0 0
G00108           N00143           N01045           82.462     0.0130   0 0 0 0
G00109           N00147           N00156           100.000    0.0130   0 0 0 0
G00110           N00148           N00117           260.000    0.0130   0 0 0 0
G00111           N00149           N00150           101.980    0.0130   0 0 0 0
G00112           N00150           N00151           107.703    0.0130   0 0 0 0
G00113           N00151           N00152           89.443     0.0130   0 0 0 0
G00114           N00152           N00153           116.619    0.0130   0 0 0 0
G00115           N00153           N01390           100.000    0.0130   0 0 0 0
G00116           N00154           N01465           72.111     0.0130   0 0 0 0
G00117           N00155           N02697           63.246     0.0130   0 0 0 0
G00118           N00156           N01460           63.246     0.0130   0 0 0 0
G00119           N00157           N01402           101.980    0.0130   0 0 0 0
G00120           N00158           N01045           100.000    0.0130   0 0 0 0
G00121           N00159           N00803           28.284     0.0130   0 0 0 0
G00122           N00160           N00108           89.443     0.0130   0 0 0 0
G00123           N00161           N00124           100.000    0.0130   0 0 0 0
G00124           N00162           N02520           80.000     0.0130   0 0 0 0
G00125           N00163           N01045           28.284     0.0130   0 0 0 0
G00126           N00164           N00165           447.214    0.0130   0 0 0 0
G00127           N00165           N01406           56.569     0.0130   0 0 0 0
G00128           N00166           N00164           60.000     0.0130   0 0 0 0
G00129           N00167           N00168           172.047    0.0130   0 0 0 0
G00130           N00168           N00189           63.246     0.0130   0 0 0 0
G00131           N00169           N00187           72.111     0.0130   0 0 0 0
G00132           N00170           N00171           84.853     0.0130   0 0 0 0
G00133           N00171           N00191           63.246     0.0130   0 0 0 0
G00134           N00172           N02623           161.245    0.0130   0 0 0 0
G00135           N00173           N01952           72.111     0.0130   0 0 0 0
G00136           N00174           N01659           113.137    0.0130   0 0 0 0
G00137           N00175           N01952           20.000     0.0130   0 0 0 0
G00138           N00176           N01349           40.000     0.0130   0 0 0 0
G00139           N00177           N00659           84.853     0.0130   0 0 0 0
G00140           N00178           N00169           223.607    0.0130   0 0 0 0
G00141           N00179           N00181           82.462     0.0130   0 0 0 0
G00142           N00180           N00168           72.111     0.0130   0 0 0 0
G00143           N00181           N00962           60.000     0.0130   0 0 0 0
G00144           N00182           N01928           82.462     0.0130   0 0 0 0
G00145           N00183           N00124           100.000    0.0130   0 0 0 0
G00146           N00184           N00123           72.111     0.0130   0 0 0 0
G00147           N00185           N00100           107.703    0.0130   0 0 0 0
G00148           N00186           N00792           82.462     0.0130   0 0 0 0
G00149           N00187           N00964           60.000     0.0130   0 0 0 0
G00150           N00188           N00965           28.284     0.0130   0 0 0 0
G00151           N00189           N00188           156.205    0.0130   0 0 0 0
G00152           N00190           N00189           172.047    0.0130   0 0 0 0
G00153           N00191           N02622           100.000    0.0130   0 0 0 0
G00154           N00192           N00175           100.000    0.0130   0 0 0 0
G00155           N00193           N01928           40.000     0.0130   0 0 0 0
G00156           N00194           N00182           80.000     0.0130   0 0 0 0
G00157           N00195           N00224           100.000    0.0130   0 0 0 0
G00158           N00196           N00197           216.333    0.0130   0 0 0 0
G00159           N00197           N01478           72.111     0.0130   0 0 0 0
G00160           N00198           N02145           63.246     0.0130   0 0 0 0
G00161           N00199           N00198           101.980    0.0130   0 0 0 0
G00162           N00200           N00198           72.111     0.0130   0 0 0 0
G00163           N00201           N00210           89.443     0.0130   0 0 0 0
G00164           N00202           N01931           80.000     0.0130   0 0 0 0
G00165           N00203           N02642           63.246     0.0130   0 0 0 0
G00166           N00204           N00323           100.000    0.0130   0 0 0 0
G00167           N00205           N02429           141.421    0.0130   0 0 0 0
G00168           N00206           N01933           84.853     0.0130   0 0 0 0
G00169           N00208           N01657           44.721     0.0130   0 0 0 0
G00170           N00209           N01933           40.000     0.0130   0 0 0 0
G00171           N00210           N01658           63.246     0.0130   0 0 0 0
G00172           N00212           N00211           128.062    0.0130   0 0 0 0
G00173           N00213           N00212           161.245    0.0130   0 0 0 0
G00174           N00214           N00215           240.000    0.0130   0 0 0 0
G00175           N00215           N00216           100.000    0.0130   0 0 0 0
G00176           N00216           N00217           220.907    0.0130   0 0 0 0
G00177           N00217           N01542           20.000     0.0130   0 0 0 0
G00178           N00218           N00227           28.284     0.0130   0 0 0 0
G00179           N00219           N01540           89.443     0.0130   0 0 0 0
G00180           N00220           N00819           63.246     0.0130   0 0 0 0
G00181           N00221           N00814           101.980    0.0130   0 0 0 0
G00182           N00222           N00223           208.806    0.0130   0 0 0 0
G00183           N00223           N00187           80.000     0.0130   0 0 0 0
G00184           N00224           N00225           161.245    0.0130   0 0 0 0
G00185           N00225           N00809           28.284     0.0130   0 0 0 0
G00186           N00226           N02625           44.721     0.0130   0 0 0 0
G00187           N00227           N00249           100.000    0.0130   0 0 0 0
G00188           N00228           N00251           89.443     0.0130   0 0 0 0
G00189           N00229           N00228           280.000    0.0130   0 0 0 0
G00190           N00232           N00140           160.000    0.0130   0 0 0 0
G00191           N00233           N00234           101.980    0.0130   0 0 0 0
G00192           N00234           N00235           164.924    0.0130   0 0 0 0
G00193           N00235           N00236           121.655    0.0130   0 0 0 0
G00194           N00236           N00237           215.407    0.0130   0 0 0 0
G00195           N00237           N00211           63.246     0.0130   0 0 0 0
G00196           N00238           N01083           60.000     0.0130   0 0 0 0
G00197           N00239           N00238           178.885    0.0130   0 0 0 0
G00198           N00240           N00246           56.569     0.0130   0 0 0 0
G00199           N00241           N00244           100.000    0.0130   0 0 0 0
G00200           N00242           N00821           44.721     0.0130   0 0 0 0
G00201           N00243           N00219           89.443     0.0130   0 0 0 0
G00202           N00244           N01540           89.443     0.0130   0 0 0 0
G00203           N00245           N00249           84.853     0.0130   0 0 0 0
G00204           N00246           N00250           140.000    0.0130   0 0 0 0
G00205           N00247           N00227           89.443     0.0130   0 0 0 0
G00206           N00248           N00246           60.000     0.0130   0 0 0 0
G00207           N00249           N00238           44.721     0.0130   0 0 0 0
G00208           N00250           N01083           120.000    0.0130   0 0 0 0
G00209           N00251           N00239           72.111     0.0130   0 0 0 0
G00210           N00252           N00246           28.284     0.0130   0 0 0 0
G00211           N00253           N02605           89.443     0.0130   0 0 0 0
G00212           N00254           N00256           56.569     0.0130   0 0 0 0
G00213           N00255           N00256           89.443     0.0130   0 0 0 0
G00214           N00256           N00229           63.246     0.0130   0 0 0 0
G00215           N00257           N00261           44.721     0.0130   0 0 0 0
G00216           N00258           N00262           20.000     0.0130   0 0 0 0
G00217           N00259           N00264           56.569     0.0130   0 0 0 0
G00218           N00260           N00259           161.245    0.0130   0 0 0 0
G00219           N00261           N00256           100.000    0.0130   0 0 0 0
G00220           N00262           N00261           120.000    0.0130   0 0 0 0
G00221           N00263           N00259           156.205    0.0130   0 0 0 0
G00222           N00264           N01539           100.000    0.0130   0 0 0 0
G00223           N00265           N00263           100.000    0.0130   0 0 0 0
G00224           N00266           N00269           89.443     0.0130   0 0 0 0
G00225           N00267           N00256           72.111     0.0130   0 0 0 0
G00226           N00268           N00258           28.284     0.0130   0 0 0 0
G00227           N00269           N00229           82.462     0.0130   0 0 0 0
G00228           N00270           N01573           80.000     0.0130   0 0 0 0
G00229           N00271           N01493           44.721     0.0130   0 0 0 0
G00230           N00272           N01966           72.111     0.0130   0 0 0 0
G00231           N00273           N01889           28.284     0.0130   0 0 0 0
G00232           N00274           N00831           44.721     0.0130   0 0 0 0
G00233           N00275           N00276           100.000    0.0130   0 0 0 0
G00234           N00276           N01889           80.000     0.0130   0 0 0 0
G00235           N00277           N01889           56.569     0.0130   0 0 0 0
G00236           N00278           N00276           247.386    0.0130   0 0 0 0
G00237           N00279           N00278           28.284     0.0130   0 0 0 0
G00238           N00280           N00281           141.421    0.0130   0 0 0 0
G00239           N00281           N00283           84.853     0.0130   0 0 0 0
G00240           N00282           N01888           84.853     0.0130   0 0 0 0
G00241           N00283           N00282           89.443     0.0130   0 0 0 0
G00242           N00284           N01785           80.000     0.0130   0 0 0 0
G00243           N00285           N01704           72.111     0.0130   0 0 0 0
G00244           N00286           N00288           220.000    0.0130   0 0 0 0
G00245           N00287           N00288           56.569     0.0130   0 0 0 0
G00246           N00288           N00289           161.245    0.0130   0 0 0 0
G00247           N00289           N01032           120.000    0.0130   0 0 0 0
G00248           N00290           N00909           63.246     0.0130   0 0 0 0
G00249           N00291           N00292           200.000    0.0130   0 0 0 0
G00250           N00292           N00295           60.000     0.0130   0 0 0 0
G00251           N00293           N00294           89.443     0.0130   0 0 0 0
G00252           N00294           N01358           44.721     0.0130   0 0 0 0
G00253           N00295           N01439           100.000    0.0130   0 0 0 0
G00254           N00296           N00290           63.246     0.0130   0 0 0 0
G00255           N00297           N00295           141.421    0.0130   0 0 0 0
G00256           N00298           N01037           60.000     0.0130   0 0 0 0
G00257           N00299           N00298           160.000    0.0130   0 0 0 0
G00258           N00300           N01432           28.284     0.0130   0 0 0 0
G00259           N00301           N00298           44.721     0.0130   0 0 0 0
G00260           N00302           N00301           89.443     0.0130   0 0 0 0
G00261           N00303           N01431           44.721     0.0130   0 0 0 0
G00262           N00304           N00302           40.000     0.0130   0 0 0 0
G00263           N00305           N01115           40.000     0.0130   0 0 0 0
G00264           N00306           N01358           89.443     0.0130   0 0 0 0
G00265           N00307           N01037           72.111     0.0130   0 0 0 0
G00266           N00308           N01797           82.462     0.0130   0 0 0 0
G00267           N00309           N00281           100.000    0.0130   0 0 0 0
G00268           N00310           N01431           161.245    0.0130   0 0 0 0
G00269           N00311           N01797           89.443     0.0130   0 0 0 0
G00270           N00312           N00706           89.443     0.0130   0 0 0 0
G00271           N00313           N00700           84.853     0.0130   0 0 0 0
G00272           N00314           N01335           44.721     0.0130   0 0 0 0
G00273           N00315           N00713           63.246     0.0130   0 0 0 0
G00274           N00316           N01364           28.284     0.0130   0 0 0 0
G00275           N00317           N00318           134.164    0.0130   0 0 0 0
G00276           N00318           N00714           84.853     0.0130   0 0 0 0
G00277           N00319           N00720           72.111     0.0130   0 0 0 0
G00278           N00320           N00703           28.284     0.0130   0 0 0 0
G00279           N00321           N00704           100.000    0.0130   0 0 0 0
G00280           N00322           N00321           184.391    0.0130   0 0 0 0
G00281           N00323           N02653           82.462     0.0130   0 0 0 0
G00282           N00324           N00323           145.602    0.0130   0 0 0 0
G00283           N00325           N01500           140.000    0.0130   0 0 0 0
G00284           N00326           N00327           89.443     0.0130   0 0 0 0
G00285           N00327           N01496           44.721     0.0130   0 0 0 0
G00286           N00328           N01489           60.000     0.0130   0 0 0 0
G00287           N00329           N01487           72.111     0.0130   0 0 0 0
G00288           N00330           N02802           28.284     0.0130   0 0 0 0
G00289           N00331           N01457           44.721     0.0130   0 0 0 0
G00290           N00332           N02753           44.721     0.0130   0 0 0 0
G00291           N00333           N00334           200.998    0.0130   0 0 0 0
G00292           N00334           N00335           140.000    0.0130   0 0 0 0
G00293           N00335           N00336           240.000    0.0130   0 0 0 0
G00294           N00336           N02816           100.000    0.0130   0 0 0 0
G00295           N00337           N00334           60.000     0.0130   0 0 0 0
G00296           N00338           N02753           40.000     0.0130   0 0 0 0
G00297           N00339           N00340           145.602    0.0130   0 0 0 0
G00298           N00340           N00347           60.000     0.0130   0 0 0 0
G00299           N00341           N00353           161.245    0.0130   0 0 0 0
G00300           N00342           N00362           170.880    0.0130   0 0 0 0
G00301           N00343           N00344           152.315    0.0130   0 0 0 0
G00302           N00344           N00027           63.246     0.0130   0 0 0 0
G00303           N00345           N02620           56.569     0.0130   0 0 0 0
G00304           N00346           N00345           180.000    0.0130   0 0 0 0
G00305           N00347           N01127           63.246     0.0130   0 0 0 0
G00306           N00348           N00347           160.000    0.0130   0 0 0 0
G00307           N00349           N00348           145.602    0.0130   0 0 0 0
G00308           N00350           N00355           44.721     0.0130   0 0 0 0
G00309           N00351           N00349           72.111     0.0130   0 0 0 0
G00310           N00352           N00347           152.315    0.0130   0 0 0 0
G00311           N00353           N00352           28.284     0.0130   0 0 0 0
G00312           N00354           N00353           144.222    0.0130   0 0 0 0
G00313           N00355           N00362           164.924    0.0130   0 0 0 0
G00314           N00356           N00361           84.853     0.0130   0 0 0 0
G00315           N00357           N00364           82.462     0.0130   0 0 0 0
G00316           N00358           N00330           100.000    0.0130   0 0 0 0
G00317           N00359           N00341           44.721     0.0130   0 0 0 0
G00318           N00360           N00355           44.721     0.0130   0 0 0 0
G00319           N00361           N00349           44.721     0.0130   0 0 0 0
G00320           N00362           N00979           40.000     0.0130   0 0 0 0
G00321           N00363           N00364           126.491    0.0130   0 0 0 0
G00322           N00364           N00348           72.111     0.0130   0 0 0 0
G00323           N00365           N01520           82.462     0.0130   0 0 0 0
G00324           N00366           N00343           44.721     0.0130   0 0 0 0
G00325           N00367           N01012           60.000     0.0130   0 0 0 0
G00326           N00368           N00367           244.131    0.0130   0 0 0 0
G00327           N00369           N00370           169.706    0.0130   0 0 0 0
G00328           N00370           N00371           84.853     0.0130   0 0 0 0
G00329           N00371           N00372           84.853     0.0130   0 0 0 0
G00330           N00372           N00653           72.111     0.0130   0 0 0 0
G00331           N00373           N00652           100.000    0.0130   0 0 0 0
G00332           N00374           N00212           28.284     0.0130   0 0 0 0
G00333           N00375           N00387           28.284     0.0130   0 0 0 0
G00334           N00376           N00375           300.000    0.0130   0 0 0 0
G00335           N00377           N00386           161.245    0.0130   0 0 0 0
G00336           N00378           N02539           60.000     0.0130   0 0 0 0
G00337           N00379           N00625           89.443     0.0130   0 0 0 0
G00338           N00380           N00381           161.245    0.0130   0 0 0 0
G00339           N00381           N02317           89.443     0.0130   0 0 0 0
G00340           N00382           N00383           181.108    0.0130   0 0 0 0
G00341           N00383           N02311           180.000    0.0130   0 0 0 0
G00342           N00384           N00399           84.853     0.0130   0 0 0 0
G00343           N00385           N00384           101.980    0.0130   0 0 0 0
G00344           N00386           N00387           60.000     0.0130   0 0 0 0
G00345           N00387           N01609           82.462     0.0130   0 0 0 0
G00346           N00388           N00389           101.980    0.0130   0 0 0 0
G00347           N00389           N01125           56.569     0.0130   0 0 0 0
G00348           N00390           N00395           82.462     0.0130   0 0 0 0
G00349           N00391           N00390           116.619    0.0130   0 0 0 0
G00350           N00392           N00393           300.000    0.0130   0 0 0 0
G00351           N00393           N00014           100.000    0.0130   0 0 0 0
G00352           N00394           N00398           40.000     0.0130   0 0 0 0
G00353           N00395           N00385           63.246     0.0130   0 0 0 0
G00354           N00396           N00014           100.000    0.0130   0 0 0 0
G00355           N00397           N00395           72.111     0.0130   0 0 0 0
G00356           N00398           N00399           269.072    0.0130   0 0 0 0
G00357           N00399           N00386           44.721     0.0130   0 0 0 0
G00358           N00400           N02352           60.000     0.0130   0 0 0 0
G00359           N00401           N02354           63.246     0.0130   0 0 0 0
G00360           N00402           N00401           181.108    0.0130   0 0 0 0
G00361           N00403           N02824           44.721     0.0130   0 0 0 0
G00362           N00404           N02354           72.111     0.0130   0 0 0 0
G00363           N00405           N01618           184.391    0.0130   0 0 0 0
G00364           N00406           N00405           164.924    0.0130   0 0 0 0
G00365           N00408           N01329           63.246     0.0130   0 0 0 0
G00366           N00409           N00408           113.137    0.0130   0 0 0 0
G00367           N00410           N01329           60.000     0.0130   0 0 0 0
G00368           N00411           N00410           140.000    0.0130   0 0 0 0
G00369           N00412           N01896           28.284     0.0130   0 0 0 0
G00370           N00413           N01420           63.246     0.0130   0 0 0 0
G00371           N00414           N01818           60.000     0.0130   0 0 0 0
G00372           N00415           N02463           82.462     0.0130   0 0 0 0
G00373           N00416           N01420           63.246     0.0130   0 0 0 0
G00374           N00422           N02824           72.111     0.0130   0 0 0 0
G00375           N00423           N00424           140.000    0.0130   0 0 0 0
G00376           N00424           N00450           20.000     0.0130   0 0 0 0
G00377           N00425           N00549           100.000    0.0130   0 0 0 0
G00378           N00426           N00450           80.000     0.0130   0 0 0 0
G00379           N00427           N00423           100.000    0.0130   0 0 0 0
G00380           N00428           N00542           82.462     0.0130   0 0 0 0
G00381           N00429           N00431           220.000    0.0130   0 0 0 0
G00382           N00430           N00436           63.246     0.0130   0 0 0 0
G00383           N00431           N00446           161.245    0.0130   0 0 0 0
G00384           N00432           N00409           28.284     0.0130   0 0 0 0
G00385           N00433           N00568           80.000     0.0130   0 0 0 0
G00386           N00434           N00571           28.284     0.0130   0 0 0 0
G00387           N00435           N00664           28.284     0.0130   0 0 0 0
G00388           N00436           N00431           172.047    0.0130   0 0 0 0
G00389           N00437           N00430           63.246     0.0130   0 0 0 0
G00390           N00438           N00443           44.721     0.0130   0 0 0 0
G00391           N00439           N01503           89.443     0.0130   0 0 0 0
G00392           N00440           N00429           100.000    0.0130   0 0 0 0
G00393           N00441           N00431           28.284     0.0130   0 0 0 0
G00394           N00442           N00441           161.245    0.0130   0 0 0 0
G00395           N00443           N00442           144.222    0.0130   0 0 0 0
G00396           N00444           N00441           160.000    0.0130   0 0 0 0
G00397           N00445           N00444           240.832    0.0130   0 0 0 0
G00398           N00446           N00572           28.284     0.0130   0 0 0 0
G00399           N00449           N00425           28.284     0.0130   0 0 0 0
G00400           N00450           N00449           184.391    0.0130   0 0 0 0
G00401           N00451           N00450           82.462     0.0130   0 0 0 0
G00402           N00452           N00451           82.462     0.0130   0 0 0 0
G00403           N00453           N00426           100.000    0.0130   0 0 0 0
G00404           N00454           N00453           82.462     0.0130   0 0 0 0
G00405           N00455           N00428           100.000    0.0130   0 0 0 0
G00406           N00456           N02502           63.246     0.0130   0 0 0 0
G00407           N00457           N00458           280.713    0.0130   0 0 0 0
G00408           N00458           N00554           89.443     0.0130   0 0 0 0
G00409           N00480           N00479           189.737    0.0130   0 0 0 0
G00410           N00481           N00482           101.980    0.0130   0 0 0 0
G00411           N00482           N00480           84.853     0.0130   0 0 0 0
G00412           N00483           N00482           161.245    0.0130   0 0 0 0
G00413           N00484           N00501           84.853     0.0130   0 0 0 0
G00414           N00485           N02024           72.111     0.0130   0 0 0 0
G00415           N00486           N00484           60.000     0.0130   0 0 0 0
G00416           N00487           N02024           89.443     0.0130   0 0 0 0
G00417           N00488           N00487           456.946    0.0130   0 0 0 0
G00418           N00489           N01581           89.443     0.0130   0 0 0 0
G00419           N00490           N00507           72.111     0.0130   0 0 0 0
G00420           N00491           N00492           84.853     0.0130   0 0 0 0
G00421           N00492           N00510           89.443     0.0130   0 0 0 0
G00422           N00493           N00512           243.311    0.0130   0 0 0 0
G00423           N00494           N00512           89.443     0.0130   0 0 0 0
G00424           N00495           N00484           82.462     0.0130   0 0 0 0
G00425           N00496           N00502           121.655    0.0130   0 0 0 0
G00426           N00497           N00480           72.111     0.0130   0 0 0 0
G00427           N00498           N00512           40.000     0.0130   0 0 0 0
G00428           N00499           N00484           100.000    0.0130   0 0 0 0
G00429           N00500           N00480           56.569     0.0130   0 0 0 0
G00430           N00501           N00500           82.462     0.0130   0 0 0 0
G00431           N00502           N00480           60.000     0.0130   0 0 0 0
G00432           N00503           N00491           82.462     0.0130   0 0 0 0
G00433           N00504           N00512           40.000     0.0130   0 0 0 0
G00434           N00505           N00494           72.111     0.0130   0 0 0 0
G00435           N00506           N00497           44.721     0.0130   0 0 0 0
G00436           N00507           N00502           100.000    0.0130   0 0 0 0
G00437           N00508           N00484           72.111     0.0130   0 0 0 0
G00438           N00509           N00490           82.462     0.0130   0 0 0 0
G00439           N00510           N00480           82.462     0.0130   0 0 0 0
G00440           N00511           N00496           80.000     0.0130   0 0 0 0
G00441           N00512           N00495           100.000    0.0130   0 0 0 0
G00442           N00513           N00493           40.000     0.0130   0 0 0 0
G00443           N00514           N02260           63.246     0.0130   0 0 0 0
G00444           N00515           N02260           56.569     0.0130   0 0 0 0
G00445           N00525           N00515           63.246     0.0130   0 0 0 0
G00446           N00530           N02805           161.245    0.0130   0 0 0 0
G00447           N00531           N02586           63.246     0.0130   0 0 0 0
G00448           N00532           N01524           72.111     0.0130   0 0 0 0
G00449           N00533           N00532           56.569     0.0130   0 0 0 0
G00450           N00534           N02739           56.569     0.0130   0 0 0 0
G00451           N00535           N02798           89.443     0.0130   0 0 0 0
G00452           N00536           N02163           28.284     0.0130   0 0 0 0
G00453           N00537           N00536           89.443     0.0130   0 0 0 0
G00454           N00538           N00424           89.443     0.0130   0 0 0 0
G00455           N00539           N02465           20.000     0.0130   0 0 0 0
G00456           N00540           N00425           100.000    0.0130   0 0 0 0
G00457           N00541           N00540           228.035    0.0130   0 0 0 0
G00458           N00542           N02465           40.000     0.0130   0 0 0 0
G00459           N00545           N00056           44.721     0.0130   0 0 0 0
G00460           N00546           N00451           63.246     0.0130   0 0 0 0
G00461           N00547           N02122           100.000    0.0130   0 0 0 0
G00462           N00548           N00451           44.721     0.0130   0 0 0 0
G00463           N00549           N00542           100.000    0.0130   0 0 0 0
G00464           N00550           N00551           212.603    0.0130   0 0 0 0
G00465           N00551           N00552           256.125    0.0130   0 0 0 0
G00466           N00552           N00553           269.072    0.0130   0 0 0 0
G00467           N00553           N01002           72.111     0.0130   0 0 0 0
G00468           N00554           N02836           20.000     0.0130   0 0 0 0
G00469           N00555           N00457           60.000     0.0130   0 0 0 0
G00470           N00556           N02845           89.443     0.0130   0 0 0 0
G00471           N00565           N02166           56.569     0.0130   0 0 0 0
G00472           N00566           N02164           82.462     0.0130   0 0 0 0
G00473           N00567           N00411           89.443     0.0130   0 0 0 0
G00474           N00568           N00569           80.000     0.0130   0 0 0 0
G00475           N00569           N01330           82.462     0.0130   0 0 0 0
G00476           N00570           N00410           82.462     0.0130   0 0 0 0
G00477           N00571           N01505           84.853     0.0130   0 0 0 0
G00478           N00572           N00408           100.000    0.0130   0 0 0 0
G00479           N00573           N02595           44.721     0.0130   0 0 0 0
G00480           N00574           N00573           152.315    0.0130   0 0 0 0
G00481           N00575           N01154           63.246     0.0130   0 0 0 0
G00482           N00585           N01598           82.462     0.0130   0 0 0 0
G00483           N00586           N01595           28.284     0.0130   0 0 0 0
G00484           N00587           N00589           72.111     0.0130   0 0 0 0
G00485           N00588           N01596           72.111     0.0130   0 0 0 0
G00486           N00589           N00590           160.000    0.0130   0 0 0 0
G00487           N00590           N00591           178.885    0.0130   0 0 0 0
G00488           N00591           N01535           72.111     0.0130   0 0 0 0
G00489           N00592           N00770           56.569     0.0130   0 0 0 0
G00490           N00596           N01598           72.111     0.0130   0 0 0 0
G00491           N00597           N01565           44.721     0.0130   0 0 0 0
G00492           N00600           N02100           161.245    0.0130   0 0 0 0
G00493           N00602           N00616           82.462     0.0130   0 0 0 0
G00494           N00603           N01588           89.443     0.0130   0 0 0 0
G00495           N00604           N01047           82.462     0.0130   0 0 0 0
G00496           N00605           N00604           169.706    0.0130   0 0 0 0
G00497           N00606           N00607           240.000    0.0130   0 0 0 0
G00498           N00607           N01051           72.111     0.0130   0 0 0 0
G00499           N00608           N00609           223.607    0.0130   0 0 0 0
G00500           N00609           N00610           126.491    0.0130   0 0 0 0
G00501           N00610           N00611           152.315    0.0130   0 0 0 0
G00502           N00611           N00929           40.000     0.0130   0 0 0 0
G00503           N00612           N02775           44.721     0.0130   0 0 0 0
G00504           N00614           N02775           200.998    0.0130   0 0 0 0
G00505           N00615           N00614           160.000    0.0130   0 0 0 0
G00506           N00616           N00721           63.246     0.0130   0 0 0 0
G00507           N00617           N00618           200.998    0.0130   0 0 0 0
G00508           N00618           N02098           60.000     0.0130   0 0 0 0
G00509           N00619           N00620           161.245    0.0130   0 0 0 0
G00510           N00620           N01020           44.721     0.0130   0 0 0 0
G00511           N00621           N01609           40.000     0.0130   0 0 0 0
G00512           N00622           N01610           72.111     0.0130   0 0 0 0
G00513           N00623           N01126           82.462     0.0130   0 0 0 0
G00514           N00624           N00623           134.164    0.0130   0 0 0 0
G00515           N00625           N00367           63.246     0.0130   0 0 0 0
G00516           N00626           N01611           82.462     0.0130   0 0 0 0
G00517           N00627           N01126           89.443     0.0130   0 0 0 0
G00518           N00628           N01523           82.462     0.0130   0 0 0 0
G00519           N00629           N00654           60.000     0.0130   0 0 0 0
G00520           N00630           N00235           44.721     0.0130   0 0 0 0
G00521           N00631           N00649           100.000    0.0130   0 0 0 0
G00522           N00632           N02491           72.111     0.0130   0 0 0 0
G00523           N00633           N00237           40.000     0.0130   0 0 0 0
G00524           N00634           N02491           63.246     0.0130   0 0 0 0
G00525           N00635           N00234           82.462     0.0130   0 0 0 0
G00526           N00636           N00235           82.462     0.0130   0 0 0 0
G00527           N00637           N02491           40.000     0.0130   0 0 0 0
G00528           N00638           N01164           100.000    0.0130   0 0 0 0
G00529           N00639           N00640           120.000    0.0130   0 0 0 0
G00530           N00640           N00139           160.000    0.0130   0 0 0 0
G00531           N00641           N00135           84.853     0.0130   0 0 0 0
G00532           N00642           N00136           60.000     0.0130   0 0 0 0
G00533           N00643           N01636           89.443     0.0130   0 0 0 0
G00534           N00644           N00643           82.462     0.0130   0 0 0 0
G00535           N00645           N00644           161.245    0.0130   0 0 0 0
G00536           N00646           N01639           63.246     0.0130   0 0 0 0
G00537           N00647           N00646           141.421    0.0130   0 0 0 0
G00538           N00648           N00236           145.602    0.0130   0 0 0 0
G00539           N00649           N00234           20.000     0.0130   0 0 0 0
G00540           N00650           N01391           56.569     0.0130   0 0 0 0
G00541           N00651           N01391           72.111     0.0130   0 0 0 0
G00542           N00652           N00212           100.000    0.0130   0 0 0 0
G00543           N00653           N00652           172.047    0.0130   0 0 0 0
G00544           N00654           N00237           189.737    0.0130   0 0 0 0
G00545           N00655           N00656           60.000     0.0130   0 0 0 0
G00546           N00656           N01619           101.980    0.0130   0 0 0 0
G00547           N00659           N00660           121.655    0.0130   0 0 0 0
G00548           N00660           N00661           116.619    0.0130   0 0 0 0
G00549           N00661           N01632           44.721     0.0130   0 0 0 0
G00550           N00664           N00665           141.421    0.0130   0 0 0 0
G00551           N00665           N01158           44.721     0.0130   0 0 0 0
G00552           N00667           N01158           181.108    0.0130   0 0 0 0
G00553           N00668           N00429           200.998    0.0130   0 0 0 0
G00554           N00669           N00437           40.000     0.0130   0 0 0 0
G00555           N00670           N00927           63.246     0.0130   0 0 0 0
G00556           N00671           N00929           28.284     0.0130   0 0 0 0
G00557           N00672           N00611           228.035    0.0130   0 0 0 0
G00558           N00673           N02427           63.246     0.0130   0 0 0 0
G00559           N00674           N00675           141.421    0.0130   0 0 0 0
G00560           N00675           N00256           89.443     0.0130   0 0 0 0
G00561           N00676           N00217           40.000     0.0130   0 0 0 0
G00562           N00677           N01971           28.284     0.0130   0 0 0 0
G00563           N00678           N00677           161.245    0.0130   0 0 0 0
G00564           N00679           N00831           89.443     0.0130   0 0 0 0
G00565           N00680           N02649           40.000     0.0130   0 0 0 0
G00566           N00681           N00682           272.029    0.0130   0 0 0 0
G00567           N00683           N00684           240.832    0.0130   0 0 0 0
G00568           N00684           N02049           84.853     0.0130   0 0 0 0
G00569           N00685           N01561           82.462     0.0130   0 0 0 0
G00570           N00686           N01267           44.721     0.0130   0 0 0 0
G00571           N00687           N01561           80.000     0.0130   0 0 0 0
G00572           N00688           N01968           200.000    0.0130   0 0 0 0
G00573           N00689           N01971           160.000    0.0130   0 0 0 0
G00574           N00690           N02686           44.721     0.0130   0 0 0 0
G00575           N00691           N00696           340.000    0.0130   0 0 0 0
G00576           N00692           N01275           141.421    0.0130   0 0 0 0
G00577           N00693           N00692           145.602    0.0130   0 0 0 0
G00578           N00694           N02668           80.000     0.0130   0 0 0 0
G00579           N00695           N02689           72.111     0.0130   0 0 0 0
G00580           N00696           N02687           126.491    0.0130   0 0 0 0
G00581           N00697           N02687           40.000     0.0130   0 0 0 0
G00582           N00698           N01337           89.443     0.0130   0 0 0 0
G00583           N00699           N01337           161.245    0.0130   0 0 0 0
G00584           N00700           N01284           82.462     0.0130   0 0 0 0
G00585           N00701           N00702           188.680    0.0130   0 0 0 0
G00586           N00702           N00703           161.245    0.0130   0 0 0 0
G00587           N00704           N00703           89.443     0.0130   0 0 0 0
G00588           N00705           N01059           44.721     0.0130   0 0 0 0
G00589           N00706           N00791           72.111     0.0130   0 0 0 0
G00590           N00707           N00494           116.619    0.0130   0 0 0 0
G00591           N00708           N01413           72.111     0.0130   0 0 0 0
G00592           N00709           N00702           72.111     0.0130   0 0 0 0
G00593           N00710           N00702           80.000     0.0130   0 0 0 0
G00594           N00711           N00698           80.000     0.0130   0 0 0 0
G00595           N00713           N00312           160.000    0.0130   0 0 0 0
G00596           N00714           N00723           89.443     0.0130   0 0 0 0
G00597           N00717           N00318           100.000    0.0130   0 0 0 0
G00598           N00718           N00714           60.000     0.0130   0 0 0 0
G00599           N00720           N00701           241.661    0.0130   0 0 0 0
G00600           N00721           N01588           44.721     0.0130   0 0 0 0
G00601           N00722           N00710           161.245    0.0130   0 0 0 0
G00602           N00723           N00722           205.913    0.0130   0 0 0 0
G00603           N00724           N01015           60.000     0.0130   0 0 0 0
G00604           N00725           N00008           101.980    0.0130   0 0 0 0
G00605           N00726           N00724           160.000    0.0130   0 0 0 0
G00606           N00727           N01306           82.462     0.0130   0 0 0 0
G00607           N00739           N00740           134.164    0.0130   0 0 0 0
G00608           N00740           N02722           80.000     0.0130   0 0 0 0
G00609           N00745           N00744           180.000    0.0130   0 0 0 0
G00610           N00769           N01459           80.000     0.0130   0 0 0 0
G00611           N00770           N00769           220.907    0.0130   0 0 0 0
G00612           N00773           N00604           63.246     0.0130   0 0 0 0
G00613           N00774           N02550           100.000    0.0130   0 0 0 0
G00614           N00775           N01586           44.721     0.0130   0 0 0 0
G00615           N00776           N00775           240.832    0.0130   0 0 0 0
G00616           N00777           N00605           40.000     0.0130   0 0 0 0
G00617           N00778           N01057           63.246     0.0130   0 0 0 0
G00618           N00779           N00606           72.111     0.0130   0 0 0 0
G00619           N00780           N00498           44.721     0.0130   0 0 0 0
G00620           N00782           N00783           161.245    0.0130   0 0 0 0
G00621           N00783           N00672           44.721     0.0130   0 0 0 0
G00622           N00784           N00929           82.462     0.0130   0 0 0 0
G00623           N00786           N00835           56.569     0.0130   0 0 0 0
G00624           N00787           N02824           82.462     0.0130   0 0 0 0
G00625           N00791           N00700           89.443     0.0130   0 0 0 0
G00626           N00792           N00172           28.284     0.0130   0 0 0 0
G00627           N00793           N02623           63.246     0.0130   0 0 0 0
G00628           N00794           N00172           82.462     0.0130   0 0 0 0
G00629           N00795           N00794           181.108    0.0130   0 0 0 0
G00630           N00796           N01347           56.569     0.0130   0 0 0 0
G00631           N00797           N00798           181.108    0.0130   0 0 0 0
G00632           N00798           N01269           20.000     0.0130   0 0 0 0
G00633           N00799           N01940           72.111     0.0130   0 0 0 0
G00634           N00800           N01943           164.924    0.0130   0 0 0 0
G00635           N00801           N00802           82.462     0.0130   0 0 0 0
G00636           N00802           N02746           82.462     0.0130   0 0 0 0
G00637           N00803           N00800           100.000    0.0130   0 0 0 0
G00638           N00806           N00900           28.284     0.0130   0 0 0 0
G00639           N00808           N00809           80.000     0.0130   0 0 0 0
G00640           N00809           N00810           145.602    0.0130   0 0 0 0
G00641           N00810           N01480           82.462     0.0130   0 0 0 0
G00642           N00811           N00810           164.924    0.0130   0 0 0 0
G00643           N00812           N00811           180.000    0.0130   0 0 0 0
G00644           N00813           N00808           56.569     0.0130   0 0 0 0
G00645           N00814           N00813           161.245    0.0130   0 0 0 0
G00646           N00815           N00216           40.000     0.0130   0 0 0 0
G00647           N00816           N00813           89.443     0.0130   0 0 0 0
G00648           N00817           N00816           161.245    0.0130   0 0 0 0
G00649           N00818           N00819           20.000     0.0130   0 0 0 0
G00650           N00819           N00820           181.108    0.0130   0 0 0 0
G00651           N00820           N00821           181.108    0.0130   0 0 0 0
G00652           N00821           N01540           72.111     0.0130   0 0 0 0
G00653           N00822           N00823           144.222    0.0130   0 0 0 0
G00654           N00823           N00815           101.980    0.0130   0 0 0 0
G00655           N00824           N01066           63.246     0.0130   0 0 0 0
G00656           N00825           N00824           203.961    0.0130   0 0 0 0
G00657           N00826           N01881           234.094    0.0130   0 0 0 0
G00658           N00827           N01066           28.284     0.0130   0 0 0 0
G00659           N00828           N01940           89.443     0.0130   0 0 0 0
G00660           N00829           N01884           72.111     0.0130   0 0 0 0
G00661           N00830           N00831           72.111     0.0130   0 0 0 0
G00662           N00831           N00277           161.245    0.0130   0 0 0 0
G00663           N00832           N02541           156.205    0.0130   0 0 0 0
G00664           N00833           N02558           28.284     0.0130   0 0 0 0
G00665           N00834           N01383           89.443     0.0130   0 0 0 0
G00666           N00835           N00370           100.000    0.0130   0 0 0 0
G00667           N00836           N01382           100.000    0.0130   0 0 0 0
G00668           N00848           N02244           126.491    0.0130   0 0 0 0
G00669           N00849           N02779           63.246     0.0130   0 0 0 0
G00670           N00850           N00985           63.246     0.0130   0 0 0 0
G00671           N00851           N00991           89.443     0.0130   0 0 0 0
G00672           N00852           N02284           80.000     0.0130   0 0 0 0
G00673           N00853           N00850           72.111     0.0130   0 0 0 0
G00674           N00854           N00540           89.443     0.0130   0 0 0 0
G00675           N00855           N00854           215.407    0.0130   0 0 0 0
G00676           N00856           N02017           63.246     0.0130   0 0 0 0
G00677           N00857           N02502           100.000    0.0130   0 0 0 0
G00678           N00858           N00854           28.284     0.0130   0 0 0 0
G00679           N00859           N00035           63.246     0.0130   0 0 0 0
G00680           N00860           N00859           181.108    0.0130   0 0 0 0
G00681           N00861           N00859           203.961    0.0130   0 0 0 0
G00682           N00863           N00864           184.391    0.0130   0 0 0 0
G00683           N00864           N00568           82.462     0.0130   0 0 0 0
G00684           N00865           N01330           100.000    0.0130   0 0 0 0
G00685           N00869           N00132           44.721     0.0130   0 0 0 0
G00686           N00870           N00872           170.880    0.0130   0 0 0 0
G00687           N00871           N00422           72.111     0.0130   0 0 0 0
G00688           N00872           N00084           72.111     0.0130   0 0 0 0
G00689           N00873           N00870           120.000    0.0130   0 0 0 0
G00690           N00875           N00876           223.607    0.0130   0 0 0 0
G00691           N00876           N01868           44.721     0.0130   0 0 0 0
G00692           N00877           N00878           164.924    0.0130   0 0 0 0
G00693           N00878           N00882           28.284     0.0130   0 0 0 0
G00694           N00879           N01454           40.000     0.0130   0 0 0 0
G00695           N00882           N01549           20.000     0.0130   0 0 0 0
G00696           N00887           N01859           40.000     0.0130   0 0 0 0
G00697           N00888           N00878           145.602    0.0130   0 0 0 0
G00698           N00889           N00882           164.924    0.0130   0 0 0 0
G00699           N00890           N00889           160.000    0.0130   0 0 0 0
G00700           N00894           N00892           100.000    0.0130   0 0 0 0
G00701           N00900           N02392           126.491    0.0130   0 0 0 0
G00702           N00901           N02605           72.111     0.0130   0 0 0 0
G00703           N00902           N02494           84.853     0.0130   0 0 0 0
G00704           N00903           N01544           56.569     0.0130   0 0 0 0
G00705           N00904           N01543           28.284     0.0130   0 0 0 0
G00706           N00905           N00906           145.602    0.0130   0 0 0 0
G00707           N00906           N00907           120.000    0.0130   0 0 0 0
G00708           N00907           N02352           89.443     0.0130   0 0 0 0
G00709           N00908           N01698           20.000     0.0130   0 0 0 0
G00710           N00909           N01717           100.000    0.0130   0 0 0 0
G00711           N00911           N01176           134.164    0.0130   0 0 0 0
G00712           N00914           N01397           282.843    0.0130   0 0 0 0
G00713           N00915           N00914           28.284     0.0130   0 0 0 0
G00714           N00916           N00915           140.000    0.0130   0 0 0 0
G00715           N00917           N00918           161.245    0.0130   0 0 0 0
G00716           N00918           N00920           44.721     0.0130   0 0 0 0
G00717           N00919           N00917           101.980    0.0130   0 0 0 0
G00718           N00920           N00921           160.000    0.0130   0 0 0 0
G00719           N00921           N00923           364.966    0.0130   0 0 0 0
G00720           N00922           N00919           40.000     0.0130   0 0 0 0
G00721           N00923           N01024           56.569     0.0130   0 0 0 0
G00722           N00924           N01020           63.246     0.0130   0 0 0 0
G00723           N00925           N01019           82.462     0.0130   0 0 0 0
G00724           N00926           N00925           247.386    0.0130   0 0 0 0
G00725           N00928           N00927           84.853     0.0130   0 0 0 0
G00726           N00929           N00928           189.737    0.0130   0 0 0 0
G00727           N00930           N02417           82.462     0.0130   0 0 0 0
G00728           N00931           N02750           60.000     0.0130   0 0 0 0
G00729           N00932           N00931           145.602    0.0130   0 0 0 0
G00730           N00933           N02328           44.721     0.0130   0 0 0 0
G00731           N00934           N00088           161.245    0.0130   0 0 0 0
G00732           N00941           N01476           89.443     0.0130   0 0 0 0
G00733           N00944           N01218           28.284     0.0130   0 0 0 0
G00734           N00945           N00951           100.000    0.0130   0 0 0 0
G00735           N00946           N00951           101.980    0.0130   0 0 0 0
G00736           N00947           N00945           80.000     0.0130   0 0 0 0
G00737           N00948           N00947           107.703    0.0130   0 0 0 0
G00738           N00949           N00948           84.853     0.0130   0 0 0 0
G00739           N00951           N00952           141.421    0.0130   0 0 0 0
G00740           N00952           N02829           100.000    0.0130   0 0 0 0
G00741           N00954           N00955           180.000    0.0130   0 0 0 0
G00742           N00955           N02142           160.000    0.0130   0 0 0 0
G00743           N00957           N01346           44.721     0.0130   0 0 0 0
G00744           N00958           N00959           89.443     0.0130   0 0 0 0
G00745           N00959           N01389           56.569     0.0130   0 0 0 0
G00746           N00962           N00965           100.000    0.0130   0 0 0 0
G00747           N00963           N00189           84.853     0.0130   0 0 0 0
G00748           N00964           N00191           84.853     0.0130   0 0 0 0
G00749           N00965           N00964           156.205    0.0130   0 0 0 0
G00750           N00974           N00612           101.980    0.0130   0 0 0 0
G00751           N00975           N02753           82.462     0.0130   0 0 0 0
G00752           N00979           N00980           181.108    0.0130   0 0 0 0
G00753           N00980           N00954           44.721     0.0130   0 0 0 0
G00754           N00983           N00984           140.000    0.0130   0 0 0 0
G00755           N00984           N01004           84.853     0.0130   0 0 0 0
G00756           N00985           N00025           40.000     0.0130   0 0 0 0
G00757           N00986           N00991           84.853     0.0130   0 0 0 0
G00758           N00987           N00483           100.000    0.0130   0 0 0 0
G00759           N00988           N00481           40.000     0.0130   0 0 0 0
G00760           N00989           N00502           44.721     0.0130   0 0 0 0
G00761           N00990           N01004           72.111     0.0130   0 0 0 0
G00762           N00991           N00483           189.737    0.0130   0 0 0 0
G00763           N00992           N00991           181.108    0.0130   0 0 0 0
G00764           N00993           N00992           140.000    0.0130   0 0 0 0
G00765           N00994           N00987           60.000     0.0130   0 0 0 0
G00766           N00996           N00997           170.880    0.0130   0 0 0 0
G00767           N00997           N00983           20.000     0.0130   0 0 0 0
G00768           N00998           N00999           140.000    0.0130   0 0 0 0
G00769           N00999           N00990           40.000     0.0130   0 0 0 0
G00770           N01000           N01001           126.491    0.0130   0 0 0 0
G00771           N01001           N01006           63.246     0.0130   0 0 0 0
G00772           N01002           N02845           72.111     0.0130   0 0 0 0
G00773           N01003           N01002           312.410    0.0130   0 0 0 0
G00774           N01004           N01528           121.655    0.0130   0 0 0 0
G00775           N01006           N01007           172.047    0.0130   0 0 0 0
G00776           N01007           N01325           56.569     0.0130   0 0 0 0
G00777           N01008           N01004           100.000    0.0130   0 0 0 0
G00778           N01009           N02019           40.000     0.0130   0 0 0 0
G00779           N01010           N00993           72.111     0.0130   0 0 0 0
G00780           N01011           N01010           120.000    0.0130   0 0 0 0
G00781           N01012           N01611           178.885    0.0130   0 0 0 0
G00782           N01013           N01012           172.047    0.0130   0 0 0 0
G00783           N01015           N01316           60.000     0.0130   0 0 0 0
G00784           N01016           N01316           63.246     0.0130   0 0 0 0
G00785           N01019           N01021           80.000     0.0130   0 0 0 0
G00786           N01020           N01024           60.000     0.0130   0 0 0 0
G00787           N01021           N01020           404.475    0.0130   0 0 0 0
G00788           N01022           N01023           181.108    0.0130   0 0 0 0
G00789           N01023           N01021           82.462     0.0130   0 0 0 0
G00790           N01025           N01411           100.000    0.0130   0 0 0 0
G00791           N01026           N01370           100.000    0.0130   0 0 0 0
G00792           N01028           N00383           28.284     0.0130   0 0 0 0
G00793           N01029           N01749           184.391    0.0130   0 0 0 0
G00794           N01030           N01033           82.462     0.0130   0 0 0 0
G00795           N01031           N02211           82.462     0.0130   0 0 0 0
G00796           N01032           N02614           44.721     0.0130   0 0 0 0
G00797           N01033           N00289           134.164    0.0130   0 0 0 0
G00798           N01034           N00289           180.000    0.0130   0 0 0 0
G00799           N01035           N01034           220.000    0.0130   0 0 0 0
G00800           N01036           N00289           60.000     0.0130   0 0 0 0
G00801           N01037           N00283           100.000    0.0130   0 0 0 0
G00802           N01038           N00283           40.000     0.0130   0 0 0 0
G00803           N01039           N01038           160.000    0.0130   0 0 0 0
G00804           N01040           N02108           72.111     0.0130   0 0 0 0
G00805           N01042           N02687           60.000     0.0130   0 0 0 0
G00806           N01043           N01044           121.655    0.0130   0 0 0 0
G00807           N01044           N02522           89.443     0.0130   0 0 0 0
G00808           N01045           N01380           82.462     0.0130   0 0 0 0
G00809           N01046           N01047           169.706    0.0130   0 0 0 0
G00810           N01047           N02689           44.721     0.0130   0 0 0 0
G00811           N01048           N00932           181.108    0.0130   0 0 0 0
G00812           N01049           N01050           152.315    0.0130   0 0 0 0
G00813           N01050           N01046           113.137    0.0130   0 0 0 0
G00814           N01051           N02750           89.443     0.0130   0 0 0 0
G00815           N01052           N00605           161.245    0.0130   0 0 0 0
G00816           N01053           N01051           100.000    0.0130   0 0 0 0
G00817           N01054           N01053           180.000    0.0130   0 0 0 0
G00818           N01055           N01056           161.245    0.0130   0 0 0 0
G00819           N01056           N01046           89.443     0.0130   0 0 0 0
G00820           N01057           N02689           82.462     0.0130   0 0 0 0
G00821           N01058           N01586           44.721     0.0130   0 0 0 0
G00822           N01059           N01585           100.000    0.0130   0 0 0 0
G00823           N01060           N02752           100.000    0.0130   0 0 0 0
G00824           N01061           N01062           215.407    0.0130   0 0 0 0
G00825           N01062           N02245           28.284     0.0130   0 0 0 0
G00826           N01063           N02262           100.000    0.0130   0 0 0 0
G00827           N01064           N01065           145.602    0.0130   0 0 0 0
G00828           N01065           N02241           100.000    0.0130   0 0 0 0
G00829           N01066           N01067           126.491    0.0130   0 0 0 0
G00830           N01067           N01787           44.721     0.0130   0 0 0 0
G00831           N01068           N01069           203.961    0.0130   0 0 0 0
G00832           N01069           N00707           63.246     0.0130   0 0 0 0
G00833           N01070           N02006           63.246     0.0130   0 0 0 0
G00834           N01071           N02003           140.000    0.0130   0 0 0 0
G00835           N01072           N01073           181.108    0.0130   0 0 0 0
G00836           N01073           N01074           440.454    0.0130   0 0 0 0
G00837           N01074           N01993           100.000    0.0130   0 0 0 0
G00838           N01075           N01825           100.000    0.0130   0 0 0 0
G00839           N01076           N01341           44.721     0.0130   0 0 0 0
G00840           N01077           N00830           40.000     0.0130   0 0 0 0
G00841           N01078           N01903           28.284     0.0130   0 0 0 0
G00842           N01080           N01081           220.907    0.0130   0 0 0 0
G00843           N01082           N00380           100.000    0.0130   0 0 0 0
G00844           N01083           N00217           200.000    0.0130   0 0 0 0
G00845           N01084           N00250           240.000    0.0130   0 0 0 0
G00846           N01086           N00336           72.111     0.0130   0 0 0 0
G00847           N01089           N00607           63.246     0.0130   0 0 0 0
G00848           N01090           N02546           56.569     0.0130   0 0 0 0
G00849           N01091           N02781           100.000    0.0130   0 0 0 0
G00850           N01092           N01093           164.924    0.0130   0 0 0 0
G00851           N01093           N02406           223.607    0.0130   0 0 0 0
G00852           N01098           N00071           100.000    0.0130   0 0 0 0
G00853           N01100           N00071           84.853     0.0130   0 0 0 0
G00854           N01101           N01098           72.111     0.0130   0 0 0 0
G00855           N01102           N01103           120.000    0.0130   0 0 0 0
G00856           N01103           N01456           120.000    0.0130   0 0 0 0
G00857           N01111           N01966           100.000    0.0130   0 0 0 0
G00858           N01112           N01802           101.980    0.0130   0 0 0 0
G00859           N01113           N01115           28.284     0.0130   0 0 0 0
G00860           N01114           N00020           101.980    0.0130   0 0 0 0
G00861           N01115           N01358           100.000    0.0130   0 0 0 0
G00862           N01116           N02208           44.721     0.0130   0 0 0 0
G00863           N01117           N00021           100.000    0.0130   0 0 0 0
G00864           N01118           N01117           160.000    0.0130   0 0 0 0
G00865           N01119           N00278           82.462     0.0130   0 0 0 0
G00866           N01120           N01709           80.000     0.0130   0 0 0 0
G00867           N01121           N01996           72.111     0.0130   0 0 0 0
G00868           N01122           N01867           100.000    0.0130   0 0 0 0
G00869           N01123           N02765           60.000     0.0130   0 0 0 0
G00870           N01124           N00541           72.111     0.0130   0 0 0 0
G00871           N01125           N00387           184.391    0.0130   0 0 0 0
G00872           N01126           N01610           56.569     0.0130   0 0 0 0
G00873           N01127           N01129           100.000    0.0130   0 0 0 0
G00874           N01128           N00890           60.000     0.0130   0 0 0 0
G00875           N01129           N00889           44.721     0.0130   0 0 0 0
G00876           N01130           N00890           28.284     0.0130   0 0 0 0
G00877           N01131           N00889           44.721     0.0130   0 0 0 0
G00878           N01132           N01131           100.000    0.0130   0 0 0 0
G00879           N01133           N00347           60.000     0.0130   0 0 0 0
G00880           N01135           N01285           134.164    0.0130   0 0 0 0
G00881           N01137           N02447           89.443     0.0130   0 0 0 0
G00882           N01140           N01141           212.603    0.0130   0 0 0 0
G00883           N01141           N01142           89.443     0.0130   0 0 0 0
G00884           N01142           N00592           412.311    0.0130   0 0 0 0
G00885           N01143           N00668           80.000     0.0130   0 0 0 0
G00886           N01144           N01143           180.000    0.0130   0 0 0 0
G00887           N01145           N02411           28.284     0.0130   0 0 0 0
G00888           N01146           N01143           161.245    0.0130   0 0 0 0
G00889           N01147           N01146           134.164    0.0130   0 0 0 0
G00890           N01154           N02413           100.000    0.0130   0 0 0 0
G00891           N01158           N02294           82.462     0.0130   0 0 0 0
G00892           N01162           N01613           82.462     0.0130   0 0 0 0
G00893           N01163           N02745           56.569     0.0130   0 0 0 0
G00894           N01164           N00233           20.000     0.0130   0 0 0 0
G00895           N01166           N00590           63.246     0.0130   0 0 0 0
G00896           N01176           N01198           144.222    0.0130   0 0 0 0
G00897           N01185           N02590           60.000     0.0130   0 0 0 0
G00898           N01186           N00911           82.462     0.0130   0 0 0 0
G00899           N01204           N01304           107.703    0.0130   0 0 0 0
G00900           N01205           N01204           184.391    0.0130   0 0 0 0
G00901           N01206           N02160           82.462     0.0130   0 0 0 0
G00902           N01207           N01208           200.000    0.0130   0 0 0 0
G00903           N01208           N02130           89.443     0.0130   0 0 0 0
G00904           N01209           N00056           121.655    0.0130   0 0 0 0
G00905           N01210           N00865           40.000     0.0130   0 0 0 0
G00906           N01211           N00024           44.721     0.0130   0 0 0 0
G00907           N01212           N00863           44.721     0.0130   0 0 0 0
G00908           N01213           N02292           226.274    0.0130   0 0 0 0
G00909           N01215           N01214           140.000    0.0130   0 0 0 0
G00910           N01216           N01250           101.980    0.0130   0 0 0 0
G00911           N01218           N02305           100.000    0.0130   0 0 0 0
G00912           N01240           N02259           28.284     0.0130   0 0 0 0
G00913           N01241           N01240           184.391    0.0130   0 0 0 0
G00914           N01247           N01248           200.998    0.0130   0 0 0 0
G00915           N01248           N00643           63.246     0.0130   0 0 0 0
G00916           N01249           N01636           28.284     0.0130   0 0 0 0
G00917           N01250           N02305           100.000    0.0130   0 0 0 0
G00918           N01251           N02133           40.000     0.0130   0 0 0 0
G00919           N01252           N01251           161.245    0.0130   0 0 0 0
G00920           N01253           N01252           160.000    0.0130   0 0 0 0
G00921           N01254           N02128           63.246     0.0130   0 0 0 0
G00922           N01255           N02120           72.111     0.0130   0 0 0 0
G00923           N01256           N01973           44.721     0.0130   0 0 0 0
G00924           N01257           N01973           60.000     0.0130   0 0 0 0
G00925           N01258           N01973           63.246     0.0130   0 0 0 0
G00926           N01260           N01259           116.619    0.0130   0 0 0 0
G00927           N01264           N02028           60.000     0.0130   0 0 0 0
G00928           N01265           N02027           63.246     0.0130   0 0 0 0
G00929           N01266           N00684           40.000     0.0130   0 0 0 0
G00930           N01267           N01266           223.607    0.0130   0 0 0 0
G00931           N01270           N01269           260.000    0.0130   0 0 0 0
G00932           N01271           N01483           44.721     0.0130   0 0 0 0
G00933           N01272           N01947           72.111     0.0130   0 0 0 0
G00934           N01273           N01953           72.111     0.0130   0 0 0 0
G00935           N01274           N01953           84.853     0.0130   0 0 0 0
G00936           N01275           N00324           60.000     0.0130   0 0 0 0
G00937           N01276           N01414           357.771    0.0130   0 0 0 0
G00938           N01277           N00318           89.443     0.0130   0 0 0 0
G00939           N01278           N01364           44.721     0.0130   0 0 0 0
G00940           N01279           N02028           44.721     0.0130   0 0 0 0
G00941           N01280           N02430           164.924    0.0130   0 0 0 0
G00942           N01281           N01282           188.680    0.0130   0 0 0 0
G00943           N01282           N01587           113.137    0.0130   0 0 0 0
G00944           N01283           N01335           40.000     0.0130   0 0 0 0
G00945           N01284           N00711           44.721     0.0130   0 0 0 0
G00946           N01285           N01205           20.000     0.0130   0 0 0 0
G00947           N01286           N02425           80.000     0.0130   0 0 0 0
G00948           N01287           N02794           40.000     0.0130   0 0 0 0
G00949           N01288           N01666           160.000    0.0130   0 0 0 0
G00950           N01289           N02112           44.721     0.0130   0 0 0 0
G00951           N01290           N00877           28.284     0.0130   0 0 0 0
G00952           N01291           N02549           184.391    0.0130   0 0 0 0
G00953           N01292           N00270           72.111     0.0130   0 0 0 0
G00954           N01294           N01297           63.246     0.0130   0 0 0 0
G00955           N01295           N01493           80.000     0.0130   0 0 0 0
G00956           N01296           N01295           44.721     0.0130   0 0 0 0
G00957           N01297           N01299           141.421    0.0130   0 0 0 0
G00958           N01298           N00270           56.569     0.0130   0 0 0 0
G00959           N01299           N00326           40.000     0.0130   0 0 0 0
G00960           N01300           N01496           44.721     0.0130   0 0 0 0
G00961           N01302           N00909           80.000     0.0130   0 0 0 0
G00962           N01303           N02798           100.000    0.0130   0 0 0 0
G00963           N01304           N01303           44.721     0.0130   0 0 0 0
G00964           N01305           N00619           63.246     0.0130   0 0 0 0
G00965           N01306           N00924           80.000     0.0130   0 0 0 0
G00966           N01307           N01306           82.462     0.0130   0 0 0 0
G00967           N01308           N01316           28.284     0.0130   0 0 0 0
G00968           N01309           N01316           100.000    0.0130   0 0 0 0
G00969           N01310           N01311           180.000    0.0130   0 0 0 0
G00970           N01311           N01312           107.703    0.0130   0 0 0 0
G00971           N01312           N01313           208.806    0.0130   0 0 0 0
G00972           N01313           N02435           82.462     0.0130   0 0 0 0
G00973           N01314           N02427           72.111     0.0130   0 0 0 0
G00974           N01315           N01316           56.569     0.0130   0 0 0 0
G00975           N01316           N01317           243.311    0.0130   0 0 0 0
G00976           N01317           N01306           100.000    0.0130   0 0 0 0
G00977           N01318           N00008           60.000     0.0130   0 0 0 0
G00978           N01319           N01316           63.246     0.0130   0 0 0 0
G00979           N01320           N01319           188.680    0.0130   0 0 0 0
G00980           N01324           N00493           101.980    0.0130   0 0 0 0
G00981           N01325           N01327           82.462     0.0130   0 0 0 0
G00982           N01326           N00571           44.721     0.0130   0 0 0 0
G00983           N01327           N01328           141.421    0.0130   0 0 0 0
G00984           N01328           N01329           101.980    0.0130   0 0 0 0
G00985           N01330           N01329           181.108    0.0130   0 0 0 0
G00986           N01331           N01329           89.443     0.0130   0 0 0 0
G00987           N01332           N01335           63.246     0.0130   0 0 0 0
G00988           N01333           N00963           72.111     0.0130   0 0 0 0
G00989           N01334           N00167           100.000    0.0130   0 0 0 0
G00990           N01336           N01335           56.569     0.0130   0 0 0 0
G00991           N01337           N01335           107.703    0.0130   0 0 0 0
G00992           N01338           N01802           120.000    0.0130   0 0 0 0
G00993           N01339           N01412           141.421    0.0130   0 0 0 0
G00994           N01340           N01911           100.000    0.0130   0 0 0 0
G00995           N01341           N01923           145.602    0.0130   0 0 0 0
G00996           N01342           N02652           89.443     0.0130   0 0 0 0
G00997           N01343           N01952           82.462     0.0130   0 0 0 0
G00998           N01344           N01345           145.602    0.0130   0 0 0 0
G00999           N01345           N01348           89.443     0.0130   0 0 0 0
G01000           N01346           N01345           203.961    0.0130   0 0 0 0
G01001           N01347           N00172           72.111     0.0130   0 0 0 0
G01002           N01348           N00172           80.000     0.0130   0 0 0 0
G01003           N01349           N00795           44.721     0.0130   0 0 0 0
G01004           N01350           N00213           100.000    0.0130   0 0 0 0
G01005           N01351           N01350           256.125    0.0130   0 0 0 0
G01006           N01352           N00378           100.000    0.0130   0 0 0 0
G01007           N01353           N00782           40.000     0.0130   0 0 0 0
G01008           N01354           N00775           80.000     0.0130   0 0 0 0
G01009           N01355           N00284           82.462     0.0130   0 0 0 0
G01010           N01358           N01434           84.853     0.0130   0 0 0 0
G01011           N01361           N00493           82.462     0.0130   0 0 0 0
G01012           N01362           N00713           100.000    0.0130   0 0 0 0
G01013           N01363           N01362           145.602    0.0130   0 0 0 0
G01014           N01364           N00713           82.462     0.0130   0 0 0 0
G01015           N01365           N00318           40.000     0.0130   0 0 0 0
G01016           N01366           N01915           84.853     0.0130   0 0 0 0
G01017           N01367           N01915           28.284     0.0130   0 0 0 0
G01018           N01368           N01920           44.721     0.0130   0 0 0 0
G01019           N01369           N01400           44.721     0.0130   0 0 0 0
G01020           N01370           N01371           266.833    0.0130   0 0 0 0
G01021           N01371           N01372           126.491    0.0130   0 0 0 0
G01022           N01372           N01369           82.462     0.0130   0 0 0 0
G01023           N01373           N01652           60.000     0.0130   0 0 0 0
G01024           N01374           N00007           100.000    0.0130   0 0 0 0
G01025           N01377           N00290           44.721     0.0130   0 0 0 0
G01026           N01378           N01209           44.721     0.0130   0 0 0 0
G01027           N01379           N02138           141.421    0.0130   0 0 0 0
G01028           N01380           N02672           63.246     0.0130   0 0 0 0
G01029           N01381           N00372           40.000     0.0130   0 0 0 0
G01030           N01382           N00371           72.111     0.0130   0 0 0 0
G01031           N01383           N00213           200.000    0.0130   0 0 0 0
G01032           N01384           N01383           72.111     0.0130   0 0 0 0
G01033           N01385           N02181           100.000    0.0130   0 0 0 0
G01034           N01386           N02179           63.246     0.0130   0 0 0 0
G01035           N01387           N01386           156.205    0.0130   0 0 0 0
G01036           N01388           N01387           84.853     0.0130   0 0 0 0
G01037           N01389           N01388           89.443     0.0130   0 0 0 0
G01038           N01390           N01389           84.853     0.0130   0 0 0 0
G01039           N01391           N00211           44.721     0.0130   0 0 0 0
G01040           N01392           N00371           100.000    0.0130   0 0 0 0
G01041           N01393           N00097           63.246     0.0130   0 0 0 0
G01042           N01394           N00093           63.246     0.0130   0 0 0 0
G01043           N01395           N00092           80.000     0.0130   0 0 0 0
G01044           N01396           N00092           60.000     0.0130   0 0 0 0
G01045           N01397           N02427           100.000    0.0130   0 0 0 0
G01046           N01398           N02426           40.000     0.0130   0 0 0 0
G01047           N01399           N01406           140.000    0.0130   0 0 0 0
G01048           N01400           N01399           181.108    0.0130   0 0 0 0
G01049           N01401           N01399           28.284     0.0130   0 0 0 0
G01050           N01402           N01399           260.768    0.0130   0 0 0 0
G01051           N01404           N02366           82.462     0.0130   0 0 0 0
G01052           N01405           N01399           100.000    0.0130   0 0 0 0
G01053           N01406           N02563           82.462     0.0130   0 0 0 0
G01054           N01407           N00619           56.569     0.0130   0 0 0 0
G01055           N01408           N01400           40.000     0.0130   0 0 0 0
G01056           N01409           N01408           184.391    0.0130   0 0 0 0
G01057           N01410           N01371           89.443     0.0130   0 0 0 0
G01058           N01411           N01410           184.391    0.0130   0 0 0 0
G01059           N01412           N00704           134.164    0.0130   0 0 0 0
G01060           N01413           N00703           72.111     0.0130   0 0 0 0
G01061           N01414           N01413           216.333    0.0130   0 0 0 0
G01062           N01420           N01841           141.421    0.0130   0 0 0 0
G01063           N01421           N02463           84.853     0.0130   0 0 0 0
G01064           N01422           N01854           63.246     0.0130   0 0 0 0
G01065           N01425           N01441           28.284     0.0130   0 0 0 0
G01066           N01426           N01854           60.000     0.0130   0 0 0 0
G01067           N01427           N01854           60.000     0.0130   0 0 0 0
G01068           N01428           N01834           63.246     0.0130   0 0 0 0
G01069           N01429           N01428           160.000    0.0130   0 0 0 0
G01070           N01430           N02614           63.246     0.0130   0 0 0 0
G01071           N01431           N01434           84.853     0.0130   0 0 0 0
G01072           N01432           N01431           160.000    0.0130   0 0 0 0
G01073           N01433           N00302           89.443     0.0130   0 0 0 0
G01074           N01434           N01435           160.000    0.0130   0 0 0 0
G01075           N01435           N01827           100.000    0.0130   0 0 0 0
G01076           N01436           N01827           80.000     0.0130   0 0 0 0
G01077           N01437           N01439           56.569     0.0130   0 0 0 0
G01078           N01438           N01439           72.111     0.0130   0 0 0 0
G01079           N01439           N01835           140.000    0.0130   0 0 0 0
G01080           N01440           N01439           44.721     0.0130   0 0 0 0
G01081           N01441           N01442           152.315    0.0130   0 0 0 0
G01082           N01443           N01854           100.000    0.0130   0 0 0 0
G01083           N01444           N01441           63.246     0.0130   0 0 0 0
G01084           N01445           N01446           141.421    0.0130   0 0 0 0
G01085           N01446           N01814           28.284     0.0130   0 0 0 0
G01086           N01447           N01448           200.998    0.0130   0 0 0 0
G01087           N01448           N01449           120.000    0.0130   0 0 0 0
G01088           N01449           N01841           180.000    0.0130   0 0 0 0
G01089           N01450           N01035           60.000     0.0130   0 0 0 0
G01090           N01451           N01450           80.000     0.0130   0 0 0 0
G01091           N01452           N01728           44.721     0.0130   0 0 0 0
G01092           N01453           N00303           84.853     0.0130   0 0 0 0
G01093           N01454           N00891           100.000    0.0130   0 0 0 0
G01094           N01455           N01454           56.569     0.0130   0 0 0 0
G01095           N01456           N01455           160.000    0.0130   0 0 0 0
G01096           N01457           N02081           152.315    0.0130   0 0 0 0
G01097           N01458           N01141           82.462     0.0130   0 0 0 0
G01098           N01460           N01045           100.000    0.0130   0 0 0 0
G01099           N01461           N02520           56.569     0.0130   0 0 0 0
G01100           N01462           N02671           82.462     0.0130   0 0 0 0
G01101           N01463           N01464           156.205    0.0130   0 0 0 0
G01102           N01464           N00116           100.000    0.0130   0 0 0 0
G01103           N01465           N00148           82.462     0.0130   0 0 0 0
G01104           N01466           N01954           82.462     0.0130   0 0 0 0
G01105           N01467           N00795           100.000    0.0130   0 0 0 0
G01106           N01468           N00105           63.246     0.0130   0 0 0 0
G01107           N01469           N01468           60.000     0.0130   0 0 0 0
G01108           N01470           N01388           84.853     0.0130   0 0 0 0
G01109           N01471           N02178           100.000    0.0130   0 0 0 0
G01110           N01472           N02181           44.721     0.0130   0 0 0 0
G01111           N01474           N02699           89.443     0.0130   0 0 0 0
G01112           N01475           N00196           128.062    0.0130   0 0 0 0
G01113           N01477           N01476           40.000     0.0130   0 0 0 0
G01114           N01478           N01476           100.000    0.0130   0 0 0 0
G01115           N01479           N01481           82.462     0.0130   0 0 0 0
G01116           N01480           N01479           161.245    0.0130   0 0 0 0
G01117           N01481           N02608           184.391    0.0130   0 0 0 0
G01118           N01482           N02622           100.000    0.0130   0 0 0 0
G01119           N01483           N01484           203.961    0.0130   0 0 0 0
G01120           N01484           N00808           60.000     0.0130   0 0 0 0
G01121           N01485           N01273           120.000    0.0130   0 0 0 0
G01122           N01486           N01659           40.000     0.0130   0 0 0 0
G01123           N01487           N00381           63.246     0.0130   0 0 0 0
G01124           N01488           N01487           121.655    0.0130   0 0 0 0
G01125           N01489           N00382           89.443     0.0130   0 0 0 0
G01126           N01490           N02313           89.443     0.0130   0 0 0 0
G01127           N01491           N01608           40.000     0.0130   0 0 0 0
G01128           N01492           N01753           40.000     0.0130   0 0 0 0
G01129           N01493           N00229           300.000    0.0130   0 0 0 0
G01130           N01494           N02364           220.907    0.0130   0 0 0 0
G01131           N01495           N01496           28.284     0.0130   0 0 0 0
G01132           N01496           N01494           160.000    0.0130   0 0 0 0
G01133           N01497           N00376           72.111     0.0130   0 0 0 0
G01134           N01498           N01497           282.843    0.0130   0 0 0 0
G01135           N01499           N00392           28.284     0.0130   0 0 0 0
G01136           N01500           N01743           63.246     0.0130   0 0 0 0
G01137           N01501           N01746           44.721     0.0130   0 0 0 0
G01138           N01502           N01300           63.246     0.0130   0 0 0 0
G01139           N01503           N00429           72.111     0.0130   0 0 0 0
G01140           N01504           N00863           60.000     0.0130   0 0 0 0
G01141           N01505           N01329           44.721     0.0130   0 0 0 0
G01142           N01508           N00537           40.000     0.0130   0 0 0 0
G01143           N01510           N00589           169.706    0.0130   0 0 0 0
G01144           N01511           N00589           44.721     0.0130   0 0 0 0
G01145           N01512           N02804           72.111     0.0130   0 0 0 0
G01146           N01513           N02803           44.721     0.0130   0 0 0 0
G01147           N01514           N00067           44.721     0.0130   0 0 0 0
G01148           N01515           N01516           121.655    0.0130   0 0 0 0
G01149           N01516           N01517           181.108    0.0130   0 0 0 0
G01150           N01517           N00013           82.462     0.0130   0 0 0 0
G01151           N01519           N00330           80.000     0.0130   0 0 0 0
G01152           N01520           N02802           72.111     0.0130   0 0 0 0
G01153           N01521           N00357           40.000     0.0130   0 0 0 0
G01154           N01522           N01126           84.853     0.0130   0 0 0 0
G01155           N01523           N00622           56.569     0.0130   0 0 0 0
G01156           N01524           N02722           82.462     0.0130   0 0 0 0
G01157           N01525           N02130           28.284     0.0130   0 0 0 0
G01158           N01526           N02127           100.000    0.0130   0 0 0 0
G01159           N01527           N00990           63.246     0.0130   0 0 0 0
G01160           N01528           N02836           82.462     0.0130   0 0 0 0
G01161           N01529           N02836           56.569     0.0130   0 0 0 0
G01162           N01530           N01531           160.000    0.0130   0 0 0 0
G01163           N01531           N02845           100.000    0.0130   0 0 0 0
G01164           N01532           N02836           82.462     0.0130   0 0 0 0
G01165           N01533           N01595           84.853     0.0130   0 0 0 0
G01166           N01534           N00585           63.246     0.0130   0 0 0 0
G01167           N01535           N01536           196.977    0.0130   0 0 0 0
G01168           N01536           N02595           40.000     0.0130   0 0 0 0
G01169           N01537           N00251           80.000     0.0130   0 0 0 0
G01170           N01538           N00245           56.569     0.0130   0 0 0 0
G01171           N01539           N01537           80.000     0.0130   0 0 0 0
G01172           N01540           N00815           63.246     0.0130   0 0 0 0
G01173           N01541           N01540           101.980    0.0130   0 0 0 0
G01174           N01543           N01544           161.245    0.0130   0 0 0 0
G01175           N01544           N02493           72.111     0.0130   0 0 0 0
G01176           N01547           N02704           82.462     0.0130   0 0 0 0
G01177           N01548           N01549           113.137    0.0130   0 0 0 0
G01178           N01550           N01666           89.443     0.0130   0 0 0 0
G01179           N01551           N00283           56.569     0.0130   0 0 0 0
G01180           N01552           N00282           89.443     0.0130   0 0 0 0
G01181           N01553           N01967           100.000    0.0130   0 0 0 0
G01182           N01554           N01555           141.421    0.0130   0 0 0 0
G01183           N01555           N01967           80.000     0.0130   0 0 0 0
G01184           N01559           N01728           72.111     0.0130   0 0 0 0
G01185           N01560           N02053           28.284     0.0130   0 0 0 0
G01186           N01561           N01560           228.035    0.0130   0 0 0 0
G01187           N01562           N01595           100.000    0.0130   0 0 0 0
G01188           N01563           N00589           63.246     0.0130   0 0 0 0
G01189           N01564           N01596           84.853     0.0130   0 0 0 0
G01190           N01565           N00591           234.094    0.0130   0 0 0 0
G01191           N01566           N01565           126.491    0.0130   0 0 0 0
G01192           N01572           N00259           44.721     0.0130   0 0 0 0
G01193           N01573           N00229           181.108    0.0130   0 0 0 0
G01194           N01574           N01575           160.000    0.0130   0 0 0 0
G01195           N01575           N01713           100.000    0.0130   0 0 0 0
G01196           N01576           N01788           80.000     0.0130   0 0 0 0
G01197           N01577           N00325           80.000     0.0130   0 0 0 0
G01198           N01578           N01579           160.000    0.0130   0 0 0 0
G01199           N01579           N00954           28.284     0.0130   0 0 0 0
G01200           N01580           N02027           72.111     0.0130   0 0 0 0
G01201           N01581           N01072           63.246     0.0130   0 0 0 0
G01202           N01582           N01581           82.462     0.0130   0 0 0 0
G01203           N01583           N00054           63.246     0.0130   0 0 0 0
G01204           N01584           N00175           121.655    0.0130   0 0 0 0
G01205           N01585           N01586           72.111     0.0130   0 0 0 0
G01206           N01586           N00778           197.990    0.0130   0 0 0 0
G01207           N01587           N01588           60.000     0.0130   0 0 0 0
G01208           N01588           N01585           100.000    0.0130   0 0 0 0
G01209           N01591           N02827           60.000     0.0130   0 0 0 0
G01210           N01594           N01598           89.443     0.0130   0 0 0 0
G01211           N01595           N01141           100.000    0.0130   0 0 0 0
G01212           N01596           N00589           44.721     0.0130   0 0 0 0
G01213           N01597           N00589           63.246     0.0130   0 0 0 0
G01214           N01598           N01141           44.721     0.0130   0 0 0 0
G01215           N01599           N02740           63.246     0.0130   0 0 0 0
G01216           N01601           N01353           63.246     0.0130   0 0 0 0
G01217           N01602           N01353           82.462     0.0130   0 0 0 0
G01218           N01606           N00383           28.284     0.0130   0 0 0 0
G01219           N01607           N01606           141.421    0.0130   0 0 0 0
G01220           N01608           N01607           128.062    0.0130   0 0 0 0
G01221           N01609           N01610           188.680    0.0130   0 0 0 0
G01222           N01611           N01610           134.164    0.0130   0 0 0 0
G01223           N01612           N01883           89.443     0.0130   0 0 0 0
G01224           N01613           N00631           72.111     0.0130   0 0 0 0
G01225           N01614           N00631           82.462     0.0130   0 0 0 0
G01226           N01615           N02842           80.000     0.0130   0 0 0 0
G01227           N01616           N02709           56.569     0.0130   0 0 0 0
G01228           N01617           N01616           152.315    0.0130   0 0 0 0
G01229           N01618           N02352           72.111     0.0130   0 0 0 0
G01230           N01619           N00400           63.246     0.0130   0 0 0 0
G01231           N01620           N02352           100.000    0.0130   0 0 0 0
G01232           N01621           N02802           44.721     0.0130   0 0 0 0
G01233           N01622           N02824           20.000     0.0130   0 0 0 0
G01234           N01623           N02824           28.284     0.0130   0 0 0 0
G01235           N01624           N01625           152.315    0.0130   0 0 0 0
G01236           N01625           N02375           82.462     0.0130   0 0 0 0
G01237           N01626           N01080           161.245    0.0130   0 0 0 0
G01238           N01627           N02824           100.000    0.0130   0 0 0 0
G01239           N01628           N02383           357.771    0.0130   0 0 0 0
G01240           N01629           N02605           100.000    0.0130   0 0 0 0
G01241           N01630           N00641           56.569     0.0130   0 0 0 0
G01242           N01631           N00641           223.607    0.0130   0 0 0 0
G01243           N01632           N00959           82.462     0.0130   0 0 0 0
G01244           N01634           N01631           72.111     0.0130   0 0 0 0
G01245           N01635           N01636           164.924    0.0130   0 0 0 0
G01246           N01636           N01641           80.000     0.0130   0 0 0 0
G01247           N01637           N01638           161.245    0.0130   0 0 0 0
G01248           N01638           N01635           20.000     0.0130   0 0 0 0
G01249           N01639           N01637           100.000    0.0130   0 0 0 0
G01250           N01640           N00647           60.000     0.0130   0 0 0 0
G01251           N01642           N00631           60.000     0.0130   0 0 0 0
G01252           N01643           N00380           44.721     0.0130   0 0 0 0
G01253           N01645           N00092           72.111     0.0130   0 0 0 0
G01254           N01646           N01645           178.885    0.0130   0 0 0 0
G01255           N01647           N01516           44.721     0.0130   0 0 0 0
G01256           N01648           N00012           100.000    0.0130   0 0 0 0
G01257           N01649           N01648           120.000    0.0130   0 0 0 0
G01258           N01650           N01649           184.391    0.0130   0 0 0 0
G01259           N01651           N01650           240.832    0.0130   0 0 0 0
G01260           N01652           N01651           120.000    0.0130   0 0 0 0
G01261           N01653           N01952           100.000    0.0130   0 0 0 0
G01262           N01654           N01573           82.462     0.0130   0 0 0 0
G01263           N01655           N00198           100.000    0.0130   0 0 0 0
G01264           N01656           N00198           89.443     0.0130   0 0 0 0
G01265           N01657           N02147           82.462     0.0130   0 0 0 0
G01266           N01658           N02718           72.111     0.0130   0 0 0 0
G01267           N01659           N02485           89.443     0.0130   0 0 0 0
G01268           N01660           N02484           100.000    0.0130   0 0 0 0
G01269           N01661           N02607           72.111     0.0130   0 0 0 0
G01270           N01662           N00167           172.047    0.0130   0 0 0 0
G01271           N01663           N02824           60.000     0.0130   0 0 0 0
G01272           N01665           N02795           40.000     0.0130   0 0 0 0
G01273           N01666           N01667           82.462     0.0130   0 0 0 0
G01274           N01667           N01668           160.000    0.0130   0 0 0 0
G01275           N01668           N01526           44.721     0.0130   0 0 0 0
G01276           N01669           N01667           28.284     0.0130   0 0 0 0
G01277           N01677           N01102           220.907    0.0130   0 0 0 0
G01278           N01678           N01454           63.246     0.0130   0 0 0 0
G01279           N01681           N01537           84.853     0.0130   0 0 0 0
G01280           N01682           N00302           44.721     0.0130   0 0 0 0
G01281           N01683           N01688           20.000     0.0130   0 0 0 0
G01282           N01684           N01683           181.108    0.0130   0 0 0 0
G01283           N01686           N01685           200.000    0.0130   0 0 0 0
G01284           N01687           N01688           160.000    0.0130   0 0 0 0
G01285           N01688           N01685           40.000     0.0130   0 0 0 0
G01286           N01689           N01537           72.111     0.0130   0 0 0 0
G01287           N01690           N00279           100.000    0.0130   0 0 0 0
G01288           N01691           N01450           44.721     0.0130   0 0 0 0
G01289           N01692           N01693           180.000    0.0130   0 0 0 0
G01290           N01693           N01123           100.000    0.0130   0 0 0 0
G01291           N01694           N01695           161.245    0.0130   0 0 0 0
G01292           N01695           N01788           100.000    0.0130   0 0 0 0
G01293           N01696           N01694           120.000    0.0130   0 0 0 0
G01294           N01697           N01773           40.000     0.0130   0 0 0 0
G01295           N01698           N01697           220.000    0.0130   0 0 0 0
G01296           N01699           N01700           180.000    0.0130   0 0 0 0
G01297           N01700           N01701           140.000    0.0130   0 0 0 0
G01298           N01701           N02446           82.462     0.0130   0 0 0 0
G01299           N01702           N01707           40.000     0.0130   0 0 0 0
G01300           N01703           N01710           100.000    0.0130   0 0 0 0
G01301           N01704           N01703           161.245    0.0130   0 0 0 0
G01302           N01705           N00285           100.000    0.0130   0 0 0 0
G01303           N01706           N01788           28.284     0.0130   0 0 0 0
G01304           N01707           N01706           141.421    0.0130   0 0 0 0
G01305           N01708           N01788           44.721     0.0130   0 0 0 0
G01306           N01709           N01708           220.907    0.0130   0 0 0 0
G01307           N01710           N01788           40.000     0.0130   0 0 0 0
G01308           N01711           N00909           44.721     0.0130   0 0 0 0
G01309           N01712           N01574           20.000     0.0130   0 0 0 0
G01310           N01713           N01711           141.421    0.0130   0 0 0 0
G01311           N01714           N01713           56.569     0.0130   0 0 0 0
G01312           N01715           N01713           84.853     0.0130   0 0 0 0
G01313           N01716           N01713           44.721     0.0130   0 0 0 0
G01314           N01717           N01698           82.462     0.0130   0 0 0 0
G01315           N01718           N00908           220.907    0.0130   0 0 0 0
G01316           N01719           N01716           82.462     0.0130   0 0 0 0
G01317           N01720           N01722           200.000    0.0130   0 0 0 0
G01318           N01721           N01698           28.284     0.0130   0 0 0 0
G01319           N01722           N01734           72.111     0.0130   0 0 0 0
G01320           N01723           N01450           56.569     0.0130   0 0 0 0
G01321           N01724           N01734           63.246     0.0130   0 0 0 0
G01322           N01725           N01773           44.721     0.0130   0 0 0 0
G01323           N01726           N01734           60.000     0.0130   0 0 0 0
G01324           N01727           N01771           40.000     0.0130   0 0 0 0
G01325           N01728           N01729           161.245    0.0130   0 0 0 0
G01326           N01729           N01734           82.462     0.0130   0 0 0 0
G01327           N01730           N01728           20.000     0.0130   0 0 0 0
G01328           N01731           N01713           40.000     0.0130   0 0 0 0
G01329           N01732           N01713           60.000     0.0130   0 0 0 0
G01330           N01733           N01773           20.000     0.0130   0 0 0 0
G01331           N01734           N01733           200.000    0.0130   0 0 0 0
G01332           N01735           N00909           40.000     0.0130   0 0 0 0
G01333           N01736           N01711           40.000     0.0130   0 0 0 0
G01334           N01737           N01720           20.000     0.0130   0 0 0 0
G01335           N01738           N01035           100.000    0.0130   0 0 0 0
G01336           N01739           N01728           44.721     0.0130   0 0 0 0
G01337           N01740           N01559           63.246     0.0130   0 0 0 0
G01338           N01741           N01728           56.569     0.0130   0 0 0 0
G01339           N01742           N01450           63.246     0.0130   0 0 0 0
G01340           N01743           N01756           121.655    0.0130   0 0 0 0
G01341           N01744           N01496           100.000    0.0130   0 0 0 0
G01342           N01745           N01608           60.000     0.0130   0 0 0 0
G01343           N01746           N01743           200.998    0.0130   0 0 0 0
G01344           N01747           N01746           60.000     0.0130   0 0 0 0
G01345           N01748           N01747           145.602    0.0130   0 0 0 0
G01346           N01749           N02620           100.000    0.0130   0 0 0 0
G01347           N01750           N01577           28.284     0.0130   0 0 0 0
G01348           N01751           N01029           121.655    0.0130   0 0 0 0
G01349           N01752           N01751           161.245    0.0130   0 0 0 0
G01350           N01753           N01751           20.000     0.0130   0 0 0 0
G01351           N01754           N02768           200.000    0.0130   0 0 0 0
G01352           N01755           N01768           60.000     0.0130   0 0 0 0
G01353           N01756           N01769           82.462     0.0130   0 0 0 0
G01354           N01757           N01790           20.000     0.0130   0 0 0 0
G01355           N01759           N01574           44.721     0.0130   0 0 0 0
G01356           N01760           N02620           89.443     0.0130   0 0 0 0
G01357           N01761           N00345           60.000     0.0130   0 0 0 0
G01358           N01762           N01761           181.108    0.0130   0 0 0 0
G01359           N01763           N00346           28.284     0.0130   0 0 0 0
G01360           N01764           N00346           20.000     0.0130   0 0 0 0
G01361           N01765           N01755           63.246     0.0130   0 0 0 0
G01362           N01766           N01728           40.000     0.0130   0 0 0 0
G01363           N01767           N01743           28.284     0.0130   0 0 0 0
G01364           N01768           N01756           120.000    0.0130   0 0 0 0
G01365           N01769           N01770           240.000    0.0130   0 0 0 0
G01366           N01770           N01293           100.000    0.0130   0 0 0 0
G01367           N01771           N01775           100.000    0.0130   0 0 0 0
G01368           N01772           N01293           82.462     0.0130   0 0 0 0
G01369           N01773           N01772           200.998    0.0130   0 0 0 0
G01370           N01774           N01293           63.246     0.0130   0 0 0 0
G01371           N01775           N01774           180.000    0.0130   0 0 0 0
G01372           N01776           N01574           28.284     0.0130   0 0 0 0
G01373           N01777           N00674           120.000    0.0130   0 0 0 0
G01374           N01778           N01574           28.284     0.0130   0 0 0 0
G01375           N01779           N01574           44.721     0.0130   0 0 0 0
G01376           N01780           N01574           80.000     0.0130   0 0 0 0
G01377           N01781           N01574           63.246     0.0130   0 0 0 0
G01378           N01782           N01774           40.000     0.0130   0 0 0 0
G01379           N01783           N01574           40.000     0.0130   0 0 0 0
G01380           N01784           N01757           200.998    0.0130   0 0 0 0
G01381           N01785           N01066           80.000     0.0130   0 0 0 0
G01382           N01786           N01787           28.284     0.0130   0 0 0 0
G01383           N01787           N01757           181.108    0.0130   0 0 0 0
G01384           N01788           N01757           220.000    0.0130   0 0 0 0
G01385           N01790           N01686           28.284     0.0130   0 0 0 0
G01386           N01791           N01453           100.000    0.0130   0 0 0 0
G01387           N01792           N01802           60.000     0.0130   0 0 0 0
G01388           N01793           N01996           60.000     0.0130   0 0 0 0
G01389           N01794           N01795           220.907    0.0130   0 0 0 0
G01390           N01795           N01808           44.721     0.0130   0 0 0 0
G01391           N01796           N01793           56.569     0.0130   0 0 0 0
G01392           N01797           N00309           72.111     0.0130   0 0 0 0
G01393           N01798           N01800           82.462     0.0130   0 0 0 0
G01394           N01799           N01805           60.000     0.0130   0 0 0 0
G01395           N01800           N01801           161.245    0.0130   0 0 0 0
G01396           N01801           N01802           80.000     0.0130   0 0 0 0
G01397           N01802           N01806           200.000    0.0130   0 0 0 0
G01398           N01803           N01814           20.000     0.0130   0 0 0 0
G01399           N01804           N01803           160.000    0.0130   0 0 0 0
G01400           N01805           N01802           200.000    0.0130   0 0 0 0
G01401           N01806           N01440           100.000    0.0130   0 0 0 0
G01402           N01807           N01814           28.284     0.0130   0 0 0 0
G01403           N01808           N01814           100.000    0.0130   0 0 0 0
G01404           N01809           N01808           220.000    0.0130   0 0 0 0
G01405           N01810           N01807           80.000     0.0130   0 0 0 0
G01406           N01811           N01966           100.000    0.0130   0 0 0 0
G01407           N01812           N01802           100.000    0.0130   0 0 0 0
G01408           N01813           N01814           223.607    0.0130   0 0 0 0
G01409           N01814           N01841           340.000    0.0130   0 0 0 0
G01410           N01815           N01805           63.246     0.0130   0 0 0 0
G01411           N01816           N01440           80.000     0.0130   0 0 0 0
G01412           N01817           N01440           82.462     0.0130   0 0 0 0
G01413           N01818           N01894           89.443     0.0130   0 0 0 0
G01414           N01819           N01852           40.000     0.0130   0 0 0 0
G01415           N01820           N01441           56.569     0.0130   0 0 0 0
G01416           N01821           N01837           40.000     0.0130   0 0 0 0
G01417           N01822           N02614           44.721     0.0130   0 0 0 0
G01418           N01823           N01074           28.284     0.0130   0 0 0 0
G01419           N01824           N01823           320.000    0.0130   0 0 0 0
G01420           N01825           N01073           80.000     0.0130   0 0 0 0
G01421           N01826           N01994           63.246     0.0130   0 0 0 0
G01422           N01827           N01439           28.284     0.0130   0 0 0 0
G01423           N01830           N01822           220.000    0.0130   0 0 0 0
G01424           N01831           N02463           100.000    0.0130   0 0 0 0
G01425           N01832           N01429           20.000     0.0130   0 0 0 0
G01426           N01833           N02614           82.462     0.0130   0 0 0 0
G01427           N01834           N02476           56.569     0.0130   0 0 0 0
G01428           N01835           N01441           72.111     0.0130   0 0 0 0
G01429           N01836           N01844           72.111     0.0130   0 0 0 0
G01430           N01837           N01838           300.666    0.0130   0 0 0 0
G01431           N01838           N01839           141.421    0.0130   0 0 0 0
G01432           N01839           N01845           72.111     0.0130   0 0 0 0
G01433           N01840           N01429           100.000    0.0130   0 0 0 0
G01434           N01841           N01837           28.284     0.0130   0 0 0 0
G01435           N01842           N01420           40.000     0.0130   0 0 0 0
G01436           N01843           N01441           100.000    0.0130   0 0 0 0
G01437           N01844           N01441           63.246     0.0130   0 0 0 0
G01438           N01846           N01837           82.462     0.0130   0 0 0 0
G01439           N01847           N01858           101.980    0.0130   0 0 0 0
G01440           N01849           N01036           72.111     0.0130   0 0 0 0
G01441           N01850           N01851           180.000    0.0130   0 0 0 0
G01442           N01851           N01859           28.284     0.0130   0 0 0 0
G01443           N01852           N02463           82.462     0.0130   0 0 0 0
G01444           N01853           N01834           63.246     0.0130   0 0 0 0
G01445           N01854           N02476           100.000    0.0130   0 0 0 0
G01446           N01855           N02614           63.246     0.0130   0 0 0 0
G01447           N01856           N01833           82.462     0.0130   0 0 0 0
G01448           N01857           N01872           161.245    0.0130   0 0 0 0
G01449           N01858           N01859           44.721     0.0130   0 0 0 0
G01450           N01859           N01860           200.998    0.0130   0 0 0 0
G01451           N01860           N01866           80.000     0.0130   0 0 0 0
G01452           N01861           N01859           180.000    0.0130   0 0 0 0
G01453           N01862           N01866           40.000     0.0130   0 0 0 0
G01454           N01863           N01866           20.000     0.0130   0 0 0 0
G01455           N01864           N02753           56.569     0.0130   0 0 0 0
G01456           N01865           N01868           28.284     0.0130   0 0 0 0
G01457           N01866           N01865           180.000    0.0130   0 0 0 0
G01458           N01867           N00876           28.284     0.0130   0 0 0 0
G01459           N01869           N01868           100.000    0.0130   0 0 0 0
G01460           N01870           N00333           63.246     0.0130   0 0 0 0
G01461           N01871           N02213           82.462     0.0130   0 0 0 0
G01462           N01872           N02715           63.246     0.0130   0 0 0 0
G01463           N01873           N01542           63.246     0.0130   0 0 0 0
G01464           N01874           N00194           44.721     0.0130   0 0 0 0
G01465           N01876           N01066           100.000    0.0130   0 0 0 0
G01466           N01877           N02625           40.000     0.0130   0 0 0 0
G01467           N01878           N02625           63.246     0.0130   0 0 0 0
G01468           N01879           N00826           63.246     0.0130   0 0 0 0
G01469           N01880           N00826           56.569     0.0130   0 0 0 0
G01470           N01881           N00824           101.980    0.0130   0 0 0 0
G01471           N01882           N00819           63.246     0.0130   0 0 0 0
G01472           N01883           N00220           82.462     0.0130   0 0 0 0
G01473           N01884           N01355           100.000    0.0130   0 0 0 0
G01474           N01885           N01066           82.462     0.0130   0 0 0 0
G01475           N01886           N01884           44.721     0.0130   0 0 0 0
G01476           N01887           N01967           89.443     0.0130   0 0 0 0
G01477           N01888           N01967           60.000     0.0130   0 0 0 0
G01478           N01889           N01888           141.421    0.0130   0 0 0 0
G01479           N01890           N01891           164.924    0.0130   0 0 0 0
G01480           N01891           N01989           100.000    0.0130   0 0 0 0
G01481           N01892           N01891           28.284     0.0130   0 0 0 0
G01482           N01893           N01890           63.246     0.0130   0 0 0 0
G01483           N01894           N01993           100.000    0.0130   0 0 0 0
G01484           N01895           N01072           80.000     0.0130   0 0 0 0
G01485           N01896           N01993           80.000     0.0130   0 0 0 0
G01486           N01897           N01072           44.721     0.0130   0 0 0 0
G01487           N01898           N01581           63.246     0.0130   0 0 0 0
G01488           N01899           N00831           141.421    0.0130   0 0 0 0
G01489           N01900           N01901           161.245    0.0130   0 0 0 0
G01490           N01901           N01924           89.443     0.0130   0 0 0 0
G01491           N01902           N01901           82.462     0.0130   0 0 0 0
G01492           N01903           N01368           345.254    0.0130   0 0 0 0
G01493           N01904           N01915           89.443     0.0130   0 0 0 0
G01494           N01905           N01904           401.995    0.0130   0 0 0 0
G01495           N01906           N01907           82.462     0.0130   0 0 0 0
G01496           N01907           N01901           80.000     0.0130   0 0 0 0
G01497           N01908           N01915           60.000     0.0130   0 0 0 0
G01498           N01910           N01341           56.569     0.0130   0 0 0 0
G01499           N01911           N00206           100.000    0.0130   0 0 0 0
G01500           N01912           N00205           44.721     0.0130   0 0 0 0
G01501           N01913           N02429           100.000    0.0130   0 0 0 0
G01502           N01914           N00803           63.246     0.0130   0 0 0 0
G01503           N01915           N01916           362.215    0.0130   0 0 0 0
G01504           N01916           N01341           60.000     0.0130   0 0 0 0
G01505           N01917           N01918           161.245    0.0130   0 0 0 0
G01506           N01918           N01915           63.246     0.0130   0 0 0 0
G01507           N01919           N01920           200.998    0.0130   0 0 0 0
G01508           N01920           N01915           80.000     0.0130   0 0 0 0
G01509           N01921           N01903           40.000     0.0130   0 0 0 0
G01510           N01922           N00679           44.721     0.0130   0 0 0 0
G01511           N01923           N01927           141.421    0.0130   0 0 0 0
G01512           N01924           N01899           28.284     0.0130   0 0 0 0
G01513           N01925           N01900           60.000     0.0130   0 0 0 0
G01514           N01926           N01930           60.000     0.0130   0 0 0 0
G01515           N01927           N01930           101.980    0.0130   0 0 0 0
G01516           N01928           N00174           189.737    0.0130   0 0 0 0
G01517           N01929           N00828           80.000     0.0130   0 0 0 0
G01518           N01931           N00209           80.000     0.0130   0 0 0 0
G01519           N01932           N00202           84.853     0.0130   0 0 0 0
G01520           N01933           N01934           184.391    0.0130   0 0 0 0
G01521           N01934           N02518           101.980    0.0130   0 0 0 0
G01522           N01935           N01903           63.246     0.0130   0 0 0 0
G01523           N01936           N01935           180.000    0.0130   0 0 0 0
G01524           N01937           N01905           40.000     0.0130   0 0 0 0
G01525           N01938           N01925           44.721     0.0130   0 0 0 0
G01526           N01939           N01903           72.111     0.0130   0 0 0 0
G01527           N01940           N02708           80.000     0.0130   0 0 0 0
G01528           N01941           N01947           80.000     0.0130   0 0 0 0
G01529           N01942           N01270           40.000     0.0130   0 0 0 0
G01530           N01943           N01942           160.000    0.0130   0 0 0 0
G01531           N01944           N01945           223.607    0.0130   0 0 0 0
G01532           N01945           N01466           89.443     0.0130   0 0 0 0
G01533           N01946           N02707           44.721     0.0130   0 0 0 0
G01534           N01947           N01269           164.924    0.0130   0 0 0 0
G01535           N01948           N01466           100.000    0.0130   0 0 0 0
G01536           N01949           N01940           82.462     0.0130   0 0 0 0
G01537           N01950           N01269           180.000    0.0130   0 0 0 0
G01538           N01951           N01269           141.421    0.0130   0 0 0 0
G01539           N01952           N01951           141.421    0.0130   0 0 0 0
G01540           N01953           N01951           181.108    0.0130   0 0 0 0
G01541           N01954           N00104           100.000    0.0130   0 0 0 0
G01542           N01955           N00794           120.000    0.0130   0 0 0 0
G01543           N01956           N01949           101.980    0.0130   0 0 0 0
G01544           N01957           N01259           100.000    0.0130   0 0 0 0
G01545           N01958           N01973           72.111     0.0130   0 0 0 0
G01546           N01959           N01974           63.246     0.0130   0 0 0 0
G01547           N01960           N01959           260.768    0.0130   0 0 0 0
G01548           N01961           N01256           63.246     0.0130   0 0 0 0
G01549           N01962           N01939           141.421    0.0130   0 0 0 0
G01550           N01963           N01901           63.246     0.0130   0 0 0 0
G01551           N01964           N01900           56.569     0.0130   0 0 0 0
G01552           N01965           N00688           80.000     0.0130   0 0 0 0
G01553           N01966           N01967           44.721     0.0130   0 0 0 0
G01554           N01967           N01968           181.108    0.0130   0 0 0 0
G01555           N01968           N01999           120.000    0.0130   0 0 0 0
G01556           N01969           N01965           100.000    0.0130   0 0 0 0
G01557           N01970           N01936           20.000     0.0130   0 0 0 0
G01558           N01971           N01967           20.000     0.0130   0 0 0 0
G01559           N01972           N01974           20.000     0.0130   0 0 0 0
G01560           N01973           N00681           184.391    0.0130   0 0 0 0
G01561           N01974           N01975           170.880    0.0130   0 0 0 0
G01562           N01975           N00681           20.000     0.0130   0 0 0 0
G01563           N01977           N02044           44.721     0.0130   0 0 0 0
G01564           N01982           N00515           60.000     0.0130   0 0 0 0
G01565           N01984           N02044           28.284     0.0130   0 0 0 0
G01566           N01987           N01988           400.000    0.0130   0 0 0 0
G01567           N01988           N02003           160.000    0.0130   0 0 0 0
G01568           N01989           N01988           44.721     0.0130   0 0 0 0
G01569           N01991           N01987           20.000     0.0130   0 0 0 0
G01570           N01992           N01988           63.246     0.0130   0 0 0 0
G01571           N01993           N02002           82.462     0.0130   0 0 0 0
G01572           N01994           N01993           44.721     0.0130   0 0 0 0
G01573           N01995           N01998           80.000     0.0130   0 0 0 0
G01574           N01996           N00678           140.000    0.0130   0 0 0 0
G01575           N01997           N01998           28.284     0.0130   0 0 0 0
G01576           N01998           N01999           126.491    0.0130   0 0 0 0
G01577           N02000           N01993           223.607    0.0130   0 0 0 0
G01578           N02001           N02000           20.000     0.0130   0 0 0 0
G01579           N02003           N02001           28.284     0.0130   0 0 0 0
G01580           N02004           N02046           63.246     0.0130   0 0 0 0
G01581           N02005           N01987           160.000    0.0130   0 0 0 0
G01582           N02006           N01071           63.246     0.0130   0 0 0 0
G01583           N02007           N01824           84.853     0.0130   0 0 0 0
G01584           N02008           N01991           141.421    0.0130   0 0 0 0
G01585           N02009           N02825           20.000     0.0130   0 0 0 0
G01586           N02010           N01987           121.655    0.0130   0 0 0 0
G01587           N02013           N01280           141.421    0.0130   0 0 0 0
G01588           N02014           N02007           120.000    0.0130   0 0 0 0
G01589           N02015           N02027           44.721     0.0130   0 0 0 0
G01590           N02016           N01991           121.655    0.0130   0 0 0 0
G01591           N02017           N02022           56.569     0.0130   0 0 0 0
G01592           N02018           N01003           72.111     0.0130   0 0 0 0
G01593           N02019           N02018           197.990    0.0130   0 0 0 0
G01594           N02020           N02046           44.721     0.0130   0 0 0 0
G01595           N02021           N02046           40.000     0.0130   0 0 0 0
G01596           N02022           N01897           82.462     0.0130   0 0 0 0
G01597           N02023           N00551           28.284     0.0130   0 0 0 0
G01598           N02024           N00501           89.443     0.0130   0 0 0 0
G01599           N02025           N02028           56.569     0.0130   0 0 0 0
G01600           N02026           N02029           116.619    0.0130   0 0 0 0
G01601           N02027           N02026           200.998    0.0130   0 0 0 0
G01602           N02028           N02034           84.853     0.0130   0 0 0 0
G01603           N02029           N02028           72.111     0.0130   0 0 0 0
G01604           N02032           N01259           212.603    0.0130   0 0 0 0
G01605           N02033           N01259           80.000     0.0130   0 0 0 0
G01606           N02034           N02033           56.569     0.0130   0 0 0 0
G01607           N02035           N02027           44.721     0.0130   0 0 0 0
G01608           N02036           N02026           63.246     0.0130   0 0 0 0
G01609           N02044           N02048           144.222    0.0130   0 0 0 0
G01610           N02046           N02047           200.998    0.0130   0 0 0 0
G01611           N02047           N02027           63.246     0.0130   0 0 0 0
G01612           N02048           N01265           100.000    0.0130   0 0 0 0
G01613           N02049           N02050           170.880    0.0130   0 0 0 0
G01614           N02050           N00321           28.284     0.0130   0 0 0 0
G01615           N02052           N01936           63.246     0.0130   0 0 0 0
G01616           N02053           N02054           252.982    0.0130   0 0 0 0
G01617           N02054           N00681           28.284     0.0130   0 0 0 0
G01618           N02055           N00681           20.000     0.0130   0 0 0 0
G01619           N02056           N00803           89.443     0.0130   0 0 0 0
G01620           N02057           N02639           84.853     0.0130   0 0 0 0
G01621           N02058           N02059           188.680    0.0130   0 0 0 0
G01622           N02059           N02060           367.151    0.0130   0 0 0 0
G01623           N02060           N02066           100.000    0.0130   0 0 0 0
G01624           N02061           N02060           250.599    0.0130   0 0 0 0
G01625           N02062           N02061           250.599    0.0130   0 0 0 0
G01626           N02063           N02062           82.462     0.0130   0 0 0 0
G01627           N02064           N02070           82.462     0.0130   0 0 0 0
G01628           N02065           N02069           63.246     0.0130   0 0 0 0
G01629           N02066           N02065           156.205    0.0130   0 0 0 0
G01630           N02067           N02066           72.111     0.0130   0 0 0 0
G01631           N02068           N02069           188.680    0.0130   0 0 0 0
G01632           N02070           N02069           128.062    0.0130   0 0 0 0
G01633           N02071           N02647           63.246     0.0130   0 0 0 0
G01634           N02072           N02639           84.853     0.0130   0 0 0 0
G01635           N02073           N02072           161.245    0.0130   0 0 0 0
G01636           N02074           N02687           72.111     0.0130   0 0 0 0
G01637           N02075           N02077           82.462     0.0130   0 0 0 0
G01638           N02076           N02077           44.721     0.0130   0 0 0 0
G01639           N02077           N02071           161.245    0.0130   0 0 0 0
G01640           N02078           N02077           56.569     0.0130   0 0 0 0
G01641           N02079           N01042           164.924    0.0130   0 0 0 0
G01642           N02080           N02079           164.924    0.0130   0 0 0 0
G01643           N02081           N02082           181.108    0.0130   0 0 0 0
G01644           N02082           N02083           120.000    0.0130   0 0 0 0
G01645           N02083           N01454           72.111     0.0130   0 0 0 0
G01646           N02084           N00879           63.246     0.0130   0 0 0 0
G01647           N02085           N01454           84.853     0.0130   0 0 0 0
G01648           N02086           N01454           44.721     0.0130   0 0 0 0
G01649           N02087           N01454           60.000     0.0130   0 0 0 0
G01650           N02088           N01454           84.853     0.0130   0 0 0 0
G01651           N02090           N02088           161.245    0.0130   0 0 0 0
G01652           N02091           N02092           220.907    0.0130   0 0 0 0
G01653           N02092           N02094           100.000    0.0130   0 0 0 0
G01654           N02093           N02095           63.246     0.0130   0 0 0 0
G01655           N02094           N00615           121.655    0.0130   0 0 0 0
G01656           N02095           N02094           60.000     0.0130   0 0 0 0
G01657           N02096           N01277           72.111     0.0130   0 0 0 0
G01658           N02097           N00717           84.853     0.0130   0 0 0 0
G01659           N02098           N02097           240.000    0.0130   0 0 0 0
G01660           N02099           N02098           40.000     0.0130   0 0 0 0
G01661           N02100           N02098           44.721     0.0130   0 0 0 0
G01662           N02101           N02103           220.000    0.0130   0 0 0 0
G01663           N02102           N01277           89.443     0.0130   0 0 0 0
G01664           N02103           N02097           28.284     0.0130   0 0 0 0
G01665           N02104           N00317           82.462     0.0130   0 0 0 0
G01666           N02105           N02091           100.000    0.0130   0 0 0 0
G01667           N02106           N02108           40.000     0.0130   0 0 0 0
G01668           N02107           N02108           63.246     0.0130   0 0 0 0
G01669           N02108           N01365           63.246     0.0130   0 0 0 0
G01670           N02109           N00438           140.000    0.0130   0 0 0 0
G01671           N02110           N02109           40.000     0.0130   0 0 0 0
G01672           N02111           N01668           56.569     0.0130   0 0 0 0
G01673           N02112           N02111           160.000    0.0130   0 0 0 0
G01674           N02113           N01666           56.569     0.0130   0 0 0 0
G01675           N02114           N01288           28.284     0.0130   0 0 0 0
G01676           N02115           N02132           100.000    0.0130   0 0 0 0
G01677           N02116           N02115           121.655    0.0130   0 0 0 0
G01678           N02117           N02119           44.721     0.0130   0 0 0 0
G01679           N02118           N02134           44.721     0.0130   0 0 0 0
G01680           N02119           N02120           100.000    0.0130   0 0 0 0
G01681           N02120           N02121           400.500    0.0130   0 0 0 0
G01682           N02121           N02725           40.000     0.0130   0 0 0 0
G01683           N02122           N02123           180.000    0.0130   0 0 0 0
G01684           N02123           N02128           82.462     0.0130   0 0 0 0
G01685           N02124           N02120           100.000    0.0130   0 0 0 0
G01686           N02125           N02124           260.000    0.0130   0 0 0 0
G01687           N02126           N02124           220.907    0.0130   0 0 0 0
G01688           N02127           N02120           63.246     0.0130   0 0 0 0
G01689           N02128           N02120           60.000     0.0130   0 0 0 0
G01690           N02129           N02130           82.462     0.0130   0 0 0 0
G01691           N02130           N02131           320.000    0.0130   0 0 0 0
G01692           N02131           N00954           20.000     0.0130   0 0 0 0
G01693           N02132           N02130           40.000     0.0130   0 0 0 0
G01694           N02133           N02120           82.462     0.0130   0 0 0 0
G01695           N02134           N02125           100.000    0.0130   0 0 0 0
G01696           N02135           N02115           44.721     0.0130   0 0 0 0
G01697           N02136           N02115           60.000     0.0130   0 0 0 0
G01698           N02137           N02126           63.246     0.0130   0 0 0 0
G01699           N02138           N01209           28.284     0.0130   0 0 0 0
G01700           N02139           N02140           181.108    0.0130   0 0 0 0
G01701           N02140           N02125           40.000     0.0130   0 0 0 0
G01702           N02141           N02130           44.721     0.0130   0 0 0 0
G01703           N02143           N00954           28.284     0.0130   0 0 0 0
G01704           N02144           N00954           60.000     0.0130   0 0 0 0
G01705           N02145           N02146           134.164    0.0130   0 0 0 0
G01706           N02146           N01956           20.000     0.0130   0 0 0 0
G01707           N02147           N02145           20.000     0.0130   0 0 0 0
G01708           N02148           N02149           141.421    0.0130   0 0 0 0
G01709           N02149           N01949           82.462     0.0130   0 0 0 0
G01710           N02156           N00537           89.443     0.0130   0 0 0 0
G01711           N02157           N02169           60.000     0.0130   0 0 0 0
G01712           N02158           N02130           63.246     0.0130   0 0 0 0
G01713           N02159           N02158           200.000    0.0130   0 0 0 0
G01714           N02160           N02161           200.000    0.0130   0 0 0 0
G01715           N02161           N02157           203.961    0.0130   0 0 0 0
G01716           N02162           N02164           56.569     0.0130   0 0 0 0
G01717           N02163           N02164           89.443     0.0130   0 0 0 0
G01718           N02164           N00530           72.111     0.0130   0 0 0 0
G01719           N02166           N02167           100.000    0.0130   0 0 0 0
G01720           N02167           N02164           100.000    0.0130   0 0 0 0
G01721           N02168           N02163           20.000     0.0130   0 0 0 0
G01722           N02169           N02162           56.569     0.0130   0 0 0 0
G01723           N02170           N00530           28.284     0.0130   0 0 0 0
G01724           N02171           N00745           63.246     0.0130   0 0 0 0
G01725           N02172           N02736           60.000     0.0130   0 0 0 0
G01726           N02173           N01693           181.108    0.0130   0 0 0 0
G01727           N02174           N00959           80.000     0.0130   0 0 0 0
G01728           N02175           N00660           40.000     0.0130   0 0 0 0
G01729           N02176           N00957           60.000     0.0130   0 0 0 0
G01730           N02177           N00959           60.000     0.0130   0 0 0 0
G01731           N02178           N02181           60.000     0.0130   0 0 0 0
G01732           N02179           N02178           84.853     0.0130   0 0 0 0
G01733           N02182           N01387           89.443     0.0130   0 0 0 0
G01734           N02187           N02188           161.245    0.0130   0 0 0 0
G01735           N02188           N02191           200.000    0.0130   0 0 0 0
G01736           N02191           N01631           89.443     0.0130   0 0 0 0
G01737           N02192           N02188           172.047    0.0130   0 0 0 0
G01738           N02196           N02199           28.284     0.0130   0 0 0 0
G01739           N02199           N01481           89.443     0.0130   0 0 0 0
G01740           N02204           N02199           84.853     0.0130   0 0 0 0
G01741           N02208           N01033           40.000     0.0130   0 0 0 0
G01742           N02209           N02208           184.391    0.0130   0 0 0 0
G01743           N02210           N02702           40.000     0.0130   0 0 0 0
G01744           N02211           N00336           220.907    0.0130   0 0 0 0
G01745           N02212           N02211           160.000    0.0130   0 0 0 0
G01746           N02213           N00337           63.246     0.0130   0 0 0 0
G01747           N02214           N02236           152.315    0.0130   0 0 0 0
G01748           N02215           N02214           170.880    0.0130   0 0 0 0
G01749           N02216           N02215           113.137    0.0130   0 0 0 0
G01750           N02219           N02409           89.443     0.0130   0 0 0 0
G01751           N02231           N02241           20.000     0.0130   0 0 0 0
G01752           N02232           N02239           44.721     0.0130   0 0 0 0
G01753           N02236           N02239           63.246     0.0130   0 0 0 0
G01754           N02237           N02239           72.111     0.0130   0 0 0 0
G01755           N02238           N02239           44.721     0.0130   0 0 0 0
G01756           N02239           N02240           134.164    0.0130   0 0 0 0
G01757           N02240           N01063           20.000     0.0130   0 0 0 0
G01758           N02241           N02239           40.000     0.0130   0 0 0 0
G01759           N02242           N02245           28.284     0.0130   0 0 0 0
G01760           N02243           N02242           234.094    0.0130   0 0 0 0
G01761           N02244           N02243           28.284     0.0130   0 0 0 0
G01762           N02245           N02253           170.880    0.0130   0 0 0 0
G01763           N02246           N02245           161.245    0.0130   0 0 0 0
G01764           N02247           N02251           20.000     0.0130   0 0 0 0
G01765           N02248           N02251           170.880    0.0130   0 0 0 0
G01766           N02249           N02258           20.000     0.0130   0 0 0 0
G01767           N02250           N02251           161.245    0.0130   0 0 0 0
G01768           N02251           N02252           181.108    0.0130   0 0 0 0
G01769           N02252           N02246           101.980    0.0130   0 0 0 0
G01770           N02254           N02259           56.569     0.0130   0 0 0 0
G01771           N02256           N02251           28.284     0.0130   0 0 0 0
G01772           N02258           N02259           181.108    0.0130   0 0 0 0
G01773           N02259           N02262           44.721     0.0130   0 0 0 0
G01774           N02260           N02261           141.421    0.0130   0 0 0 0
G01775           N02261           N02258           80.000     0.0130   0 0 0 0
G01776           N02262           N02263           286.356    0.0130   0 0 0 0
G01777           N02263           N02242           20.000     0.0130   0 0 0 0
G01778           N02264           N02260           80.000     0.0130   0 0 0 0
G01779           N02266           N02271           161.245    0.0130   0 0 0 0
G01780           N02267           N02830           63.246     0.0130   0 0 0 0
G01781           N02268           N02266           300.000    0.0130   0 0 0 0
G01782           N02269           N02270           107.703    0.0130   0 0 0 0
G01783           N02270           N02303           100.000    0.0130   0 0 0 0
G01784           N02271           N02830           44.721     0.0130   0 0 0 0
G01785           N02272           N02830           82.462     0.0130   0 0 0 0
G01786           N02273           N00946           101.980    0.0130   0 0 0 0
G01787           N02274           N02830           82.462     0.0130   0 0 0 0
G01788           N02275           N02566           140.000    0.0130   0 0 0 0
G01789           N02276           N02275           160.000    0.0130   0 0 0 0
G01790           N02277           N00852           89.443     0.0130   0 0 0 0
G01791           N02278           N00990           100.000    0.0130   0 0 0 0
G01792           N02279           N00999           63.246     0.0130   0 0 0 0
G01793           N02280           N02566           100.000    0.0130   0 0 0 0
G01794           N02281           N02289           80.000     0.0130   0 0 0 0
G01795           N02282           N02287           28.284     0.0130   0 0 0 0
G01796           N02283           N02282           208.806    0.0130   0 0 0 0
G01797           N02284           N02283           134.164    0.0130   0 0 0 0
G01798           N02285           N01325           63.246     0.0130   0 0 0 0
G01799           N02286           N02285           89.443     0.0130   0 0 0 0
G01800           N02287           N01325           89.443     0.0130   0 0 0 0
G01801           N02288           N02297           20.000     0.0130   0 0 0 0
G01802           N02290           N02289           72.111     0.0130   0 0 0 0
G01803           N02291           N01504           84.853     0.0130   0 0 0 0
G01804           N02292           N01214           160.000    0.0130   0 0 0 0
G01805           N02293           N01215           100.000    0.0130   0 0 0 0
G01806           N02294           N02293           141.421    0.0130   0 0 0 0
G01807           N02296           N02297           160.000    0.0130   0 0 0 0
G01808           N02297           N02289           40.000     0.0130   0 0 0 0
G01809           N02298           N02281           120.000    0.0130   0 0 0 0
G01810           N02299           N02298           260.000    0.0130   0 0 0 0
G01811           N02300           N02289           44.721     0.0130   0 0 0 0
G01812           N02301           N02300           180.000    0.0130   0 0 0 0
G01813           N02302           N02303           80.000     0.0130   0 0 0 0
G01814           N02303           N02296           82.462     0.0130   0 0 0 0
G01815           N02304           N00024           44.721     0.0130   0 0 0 0
G01816           N02305           N02307           116.619    0.0130   0 0 0 0
G01817           N02306           N02308           60.000     0.0130   0 0 0 0
G01818           N02307           N02309           116.619    0.0130   0 0 0 0
G01819           N02308           N02305           63.246     0.0130   0 0 0 0
G01820           N02309           N01213           141.421    0.0130   0 0 0 0
G01821           N02310           N02302           28.284     0.0130   0 0 0 0
G01822           N02311           N02603           60.000     0.0130   0 0 0 0
G01823           N02312           N02317           72.111     0.0130   0 0 0 0
G01824           N02313           N00383           80.000     0.0130   0 0 0 0
G01825           N02314           N00070           44.721     0.0130   0 0 0 0
G01826           N02315           N01300           72.111     0.0130   0 0 0 0
G01827           N02316           N00325           40.000     0.0130   0 0 0 0
G01828           N02317           N02318           160.000    0.0130   0 0 0 0
G01829           N02318           N00394           44.721     0.0130   0 0 0 0
G01830           N02319           N00377           100.000    0.0130   0 0 0 0
G01831           N02325           N01383           44.721     0.0130   0 0 0 0
G01832           N02326           N02327           200.000    0.0130   0 0 0 0
G01833           N02327           N02332           208.806    0.0130   0 0 0 0
G01834           N02328           N02326           164.924    0.0130   0 0 0 0
G01835           N02329           N02330           160.000    0.0130   0 0 0 0
G01836           N02330           N02354           100.000    0.0130   0 0 0 0
G01837           N02331           N00894           101.980    0.0130   0 0 0 0
G01838           N02332           N02331           144.222    0.0130   0 0 0 0
G01839           N02345           N00405           140.000    0.0130   0 0 0 0
G01840           N02351           N02355           82.462     0.0130   0 0 0 0
G01841           N02352           N02351           282.843    0.0130   0 0 0 0
G01842           N02354           N02351           280.713    0.0130   0 0 0 0
G01843           N02355           N02356           220.907    0.0130   0 0 0 0
G01844           N02364           N02365           164.924    0.0130   0 0 0 0
G01845           N02365           N01404           20.000     0.0130   0 0 0 0
G01846           N02366           N02367           184.391    0.0130   0 0 0 0
G01847           N02368           N02366           63.246     0.0130   0 0 0 0
G01848           N02369           N02367           44.721     0.0130   0 0 0 0
G01849           N02370           N02369           100.000    0.0130   0 0 0 0
G01850           N02371           N01404           60.000     0.0130   0 0 0 0
G01851           N02372           N02364           200.998    0.0130   0 0 0 0
G01852           N02373           N02366           56.569     0.0130   0 0 0 0
G01853           N02374           N01080           60.000     0.0130   0 0 0 0
G01854           N02375           N02374           160.000    0.0130   0 0 0 0
G01855           N02376           N02366           28.284     0.0130   0 0 0 0
G01856           N02377           N02367           40.000     0.0130   0 0 0 0
G01857           N02378           N02370           40.000     0.0130   0 0 0 0
G01858           N02379           N02366           40.000     0.0130   0 0 0 0
G01859           N02381           N01631           63.246     0.0130   0 0 0 0
G01860           N02382           N01947           63.246     0.0130   0 0 0 0
G01861           N02383           N01617           56.569     0.0130   0 0 0 0
G01862           N02384           N01617           72.111     0.0130   0 0 0 0
G01863           N02385           N02384           241.661    0.0130   0 0 0 0
G01864           N02388           N02605           82.462     0.0130   0 0 0 0
G01865           N02389           N01481           89.443     0.0130   0 0 0 0
G01866           N02390           N01480           44.721     0.0130   0 0 0 0
G01867           N02391           N02390           40.000     0.0130   0 0 0 0
G01868           N02392           N01480           63.246     0.0130   0 0 0 0
G01869           N02406           N02781           63.246     0.0130   0 0 0 0
G01870           N02407           N01093           40.000     0.0130   0 0 0 0
G01871           N02408           N01093           228.035    0.0130   0 0 0 0
G01872           N02409           N02408           40.000     0.0130   0 0 0 0
G01873           N02410           N02408           181.108    0.0130   0 0 0 0
G01874           N02411           N01146           89.443     0.0130   0 0 0 0
G01875           N02412           N02411           100.000    0.0130   0 0 0 0
G01876           N02413           N01146           56.569     0.0130   0 0 0 0
G01877           N02414           N02415           82.462     0.0130   0 0 0 0
G01878           N02415           N01503           63.246     0.0130   0 0 0 0
G01879           N02416           N00929           89.443     0.0130   0 0 0 0
G01880           N02417           N00929           82.462     0.0130   0 0 0 0
G01881           N02418           N00929           28.284     0.0130   0 0 0 0
G01882           N02424           N01903           44.721     0.0130   0 0 0 0
G01883           N02425           N01935           220.907    0.0130   0 0 0 0
G01884           N02426           N02427           82.462     0.0130   0 0 0 0
G01885           N02427           N00090           40.000     0.0130   0 0 0 0
G01886           N02428           N02802           72.111     0.0130   0 0 0 0
G01887           N02429           N00803           40.000     0.0130   0 0 0 0
G01888           N02430           N02028           84.853     0.0130   0 0 0 0
G01889           N02432           N02433           121.655    0.0130   0 0 0 0
G01890           N02433           N00648           82.462     0.0130   0 0 0 0
G01891           N02434           N00634           82.462     0.0130   0 0 0 0
G01892           N02435           N00090           89.443     0.0130   0 0 0 0
G01893           N02436           N01312           82.462     0.0130   0 0 0 0
G01894           N02437           N01312           60.000     0.0130   0 0 0 0
G01895           N02438           N02437           240.832    0.0130   0 0 0 0
G01896           N02439           N02440           141.421    0.0130   0 0 0 0
G01897           N02440           N01316           100.000    0.0130   0 0 0 0
G01898           N02441           N02704           60.000     0.0130   0 0 0 0
G01899           N02442           N02603           40.000     0.0130   0 0 0 0
G01900           N02443           N02444           100.000    0.0130   0 0 0 0
G01901           N02444           N02818           44.721     0.0130   0 0 0 0
G01902           N02445           N02819           40.000     0.0130   0 0 0 0
G01903           N02446           N02769           40.000     0.0130   0 0 0 0
G01904           N02447           N02448           160.000    0.0130   0 0 0 0
G01905           N02448           N02449           220.000    0.0130   0 0 0 0
G01906           N02449           N02450           100.000    0.0130   0 0 0 0
G01907           N02450           N02725           63.246     0.0130   0 0 0 0
G01908           N02454           N01709           100.000    0.0130   0 0 0 0
G01909           N02457           N00863           56.569     0.0130   0 0 0 0
G01910           N02458           N02292           160.000    0.0130   0 0 0 0
G01911           N02461           N00543           28.284     0.0130   0 0 0 0
G01912           N02462           N02464           72.111     0.0130   0 0 0 0
G01913           N02463           N02462           300.000    0.0130   0 0 0 0
G01914           N02464           N02791           89.443     0.0130   0 0 0 0
G01915           N02465           N02461           152.315    0.0130   0 0 0 0
G01916           N02466           N02791           89.443     0.0130   0 0 0 0
G01917           N02467           N02470           28.284     0.0130   0 0 0 0
G01918           N02468           N02466           56.569     0.0130   0 0 0 0
G01919           N02469           N02470           44.721     0.0130   0 0 0 0
G01920           N02470           N02791           82.462     0.0130   0 0 0 0
G01921           N02471           N02130           72.111     0.0130   0 0 0 0
G01922           N02472           N02130           72.111     0.0130   0 0 0 0
G01923           N02473           N01274           100.000    0.0130   0 0 0 0
G01924           N02474           N00964           100.000    0.0130   0 0 0 0
G01925           N02475           N00182           82.462     0.0130   0 0 0 0
G01926           N02476           N01863           141.421    0.0130   0 0 0 0
G01927           N02483           N02716           63.246     0.0130   0 0 0 0
G01928           N02484           N02705           101.980    0.0130   0 0 0 0
G01929           N02485           N01273           89.443     0.0130   0 0 0 0
G01930           N02486           N01272           72.111     0.0130   0 0 0 0
G01931           N02487           N01272           56.569     0.0130   0 0 0 0
G01932           N02488           N02376           89.443     0.0130   0 0 0 0
G01933           N02489           N01080           40.000     0.0130   0 0 0 0
G01934           N02490           N02489           60.000     0.0130   0 0 0 0
G01935           N02491           N00236           184.391    0.0130   0 0 0 0
G01936           N02493           N02494           172.047    0.0130   0 0 0 0
G01937           N02494           N00901           89.443     0.0130   0 0 0 0
G01938           N02495           N00233           80.000     0.0130   0 0 0 0
G01939           N02496           N00140           40.000     0.0130   0 0 0 0
G01940           N02497           N02498           160.000    0.0130   0 0 0 0
G01941           N02498           N01866           44.721     0.0130   0 0 0 0
G01942           N02499           N00338           82.462     0.0130   0 0 0 0
G01943           N02500           N02332           72.111     0.0130   0 0 0 0
G01944           N02501           N02327           180.000    0.0130   0 0 0 0
G01945           N02502           N00449           425.206    0.0130   0 0 0 0
G01946           N02503           N01006           56.569     0.0130   0 0 0 0
G01947           N02504           N01007           44.721     0.0130   0 0 0 0
G01948           N02505           N01006           164.924    0.0130   0 0 0 0
G01949           N02506           N00575           44.721     0.0130   0 0 0 0
G01950           N02507           N00590           40.000     0.0130   0 0 0 0
G01951           N02508           N01595           28.284     0.0130   0 0 0 0
G01952           N02509           N01535           63.246     0.0130   0 0 0 0
G01953           N02510           N00591           40.000     0.0130   0 0 0 0
G01954           N02511           N01565           40.000     0.0130   0 0 0 0
G01955           N02512           N00590           44.721     0.0130   0 0 0 0
G01956           N02513           N00493           44.721     0.0130   0 0 0 0
G01957           N02514           N00493           44.721     0.0130   0 0 0 0
G01958           N02515           N02260           44.721     0.0130   0 0 0 0
G01959           N02517           N02518           282.843    0.0130   0 0 0 0
G01960           N02518           N02708           100.000    0.0130   0 0 0 0
G01961           N02519           N02520           181.108    0.0130   0 0 0 0
G01962           N02520           N01045           100.000    0.0130   0 0 0 0
G01963           N02521           N01306           100.000    0.0130   0 0 0 0
G01964           N02522           N01305           63.246     0.0130   0 0 0 0
G01965           N02523           N00619           63.246     0.0130   0 0 0 0
G01966           N02524           N01307           28.284     0.0130   0 0 0 0
G01967           N02526           N01602           44.721     0.0130   0 0 0 0
G01968           N02527           N02689           100.000    0.0130   0 0 0 0
G01969           N02528           N01047           28.284     0.0130   0 0 0 0
G01970           N02529           N00695           100.000    0.0130   0 0 0 0
G01971           N02530           N02529           56.569     0.0130   0 0 0 0
G01972           N02531           N02535           60.000     0.0130   0 0 0 0
G01973           N02532           N02535           40.000     0.0130   0 0 0 0
G01974           N02533           N00777           89.443     0.0130   0 0 0 0
G01975           N02534           N00777           63.246     0.0130   0 0 0 0
G01976           N02535           N02534           280.000    0.0130   0 0 0 0
G01977           N02536           N02535           56.569     0.0130   0 0 0 0
G01978           N02537           N02533           161.245    0.0130   0 0 0 0
G01979           N02538           N02535           56.569     0.0130   0 0 0 0
G01980           N02539           N01013           188.680    0.0130   0 0 0 0
G01981           N02540           N02539           128.062    0.0130   0 0 0 0
G01982           N02541           N00368           82.462     0.0130   0 0 0 0
G01983           N02542           N02555           40.000     0.0130   0 0 0 0
G01984           N02543           N02548           223.607    0.0130   0 0 0 0
G01985           N02544           N00853           63.246     0.0130   0 0 0 0
G01986           N02545           N02543           181.108    0.0130   0 0 0 0
G01987           N02546           N00076           100.000    0.0130   0 0 0 0
G01988           N02547           N02568           82.462     0.0130   0 0 0 0
G01989           N02548           N02549           40.000     0.0130   0 0 0 0
G01990           N02549           N02542           82.462     0.0130   0 0 0 0
G01991           N02550           N02552           28.284     0.0130   0 0 0 0
G01992           N02551           N02268           80.000     0.0130   0 0 0 0
G01993           N02552           N02268           82.462     0.0130   0 0 0 0
G01994           N02553           N02552           40.000     0.0130   0 0 0 0
G01995           N02555           N02268           89.443     0.0130   0 0 0 0
G01996           N02556           N00774           200.000    0.0130   0 0 0 0
G01997           N02557           N02556           220.907    0.0130   0 0 0 0
G01998           N02558           N01392           100.000    0.0130   0 0 0 0
G01999           N02563           N00619           80.000     0.0130   0 0 0 0
G02000           N02564           N02565           161.245    0.0130   0 0 0 0
G02001           N02565           N00339           20.000     0.0130   0 0 0 0
G02002           N02566           N02567           170.880    0.0130   0 0 0 0
G02003           N02567           N02299           72.111     0.0130   0 0 0 0
G02004           N02568           N02277           100.000    0.0130   0 0 0 0
G02005           N02569           N02298           40.000     0.0130   0 0 0 0
G02006           N02570           N02286           141.421    0.0130   0 0 0 0
G02007           N02575           N02605           80.000     0.0130   0 0 0 0
G02008           N02576           N02388           205.913    0.0130   0 0 0 0
G02009           N02582           N02730           100.000    0.0130   0 0 0 0
G02010           N02583           N02798           44.721     0.0130   0 0 0 0
G02011           N02584           N02739           63.246     0.0130   0 0 0 0
G02012           N02585           N02722           40.000     0.0130   0 0 0 0
G02013           N02586           N02723           100.000    0.0130   0 0 0 0
G02014           N02587           N00769           121.655    0.0130   0 0 0 0
G02015           N02588           N02590           40.000     0.0130   0 0 0 0
G02016           N02589           N02590           200.000    0.0130   0 0 0 0
G02017           N02590           N02507           80.000     0.0130   0 0 0 0
G02018           N02594           N02595           63.246     0.0130   0 0 0 0
G02019           N02595           N00911           82.462     0.0130   0 0 0 0
G02020           N02596           N00911           82.462     0.0130   0 0 0 0
G02021           N02599           N00926           56.569     0.0130   0 0 0 0
G02022           N02603           N02818           100.000    0.0130   0 0 0 0
G02023           N02604           N02714           40.000     0.0130   0 0 0 0
G02024           N02605           N02611           100.000    0.0130   0 0 0 0
G02025           N02606           N01476           44.721     0.0130   0 0 0 0
G02026           N02607           N01481           100.000    0.0130   0 0 0 0
G02027           N02609           N01481           63.246     0.0130   0 0 0 0
G02028           N02610           N01476           60.000     0.0130   0 0 0 0
G02029           N02611           N02610           332.866    0.0130   0 0 0 0
G02030           N02612           N01834           82.462     0.0130   0 0 0 0
G02031           N02613           N01834           89.443     0.0130   0 0 0 0
G02032           N02614           N02615           247.386    0.0130   0 0 0 0
G02033           N02616           N01625           44.721     0.0130   0 0 0 0
G02034           N02617           N02824           80.000     0.0130   0 0 0 0
G02035           N02618           N00403           72.111     0.0130   0 0 0 0
G02036           N02619           N02614           72.111     0.0130   0 0 0 0
G02037           N02620           N02444           60.000     0.0130   0 0 0 0
G02038           N02622           N01952           44.721     0.0130   0 0 0 0
G02039           N02623           N01952           56.569     0.0130   0 0 0 0
G02040           N02625           N02626           240.000    0.0130   0 0 0 0
G02041           N02626           N00811           56.569     0.0130   0 0 0 0
G02042           N02627           N00809           44.721     0.0130   0 0 0 0
G02043           N02628           N00812           72.111     0.0130   0 0 0 0
G02044           N02629           N00809           82.462     0.0130   0 0 0 0
G02045           N02630           N00808           100.000    0.0130   0 0 0 0
G02046           N02631           N02632           340.588    0.0130   0 0 0 0
G02047           N02632           N02633           101.980    0.0130   0 0 0 0
G02048           N02633           N02634           101.980    0.0130   0 0 0 0
G02049           N02634           N02731           89.443     0.0130   0 0 0 0
G02050           N02635           N02632           40.000     0.0130   0 0 0 0
G02051           N02636           N02725           260.768    0.0130   0 0 0 0
G02052           N02637           N02450           40.000     0.0130   0 0 0 0
G02053           N02638           N02121           44.721     0.0130   0 0 0 0
G02054           N02639           N02648           121.655    0.0130   0 0 0 0
G02055           N02640           N02641           181.108    0.0130   0 0 0 0
G02056           N02641           N00324           28.284     0.0130   0 0 0 0
G02057           N02642           N00323           189.737    0.0130   0 0 0 0
G02058           N02643           N02644           145.602    0.0130   0 0 0 0
G02059           N02644           N01412           28.284     0.0130   0 0 0 0
G02060           N02645           N02639           100.000    0.0130   0 0 0 0
G02061           N02646           N01059           89.443     0.0130   0 0 0 0
G02062           N02647           N02639           60.000     0.0130   0 0 0 0
G02063           N02648           N02650           63.246     0.0130   0 0 0 0
G02064           N02649           N01339           82.462     0.0130   0 0 0 0
G02065           N02650           N02649           181.108    0.0130   0 0 0 0
G02066           N02651           N01339           63.246     0.0130   0 0 0 0
G02067           N02652           N02643           44.721     0.0130   0 0 0 0
G02068           N02653           N02651           40.000     0.0130   0 0 0 0
G02069           N02654           N01275           82.462     0.0130   0 0 0 0
G02070           N02655           N02650           72.111     0.0130   0 0 0 0
G02071           N02656           N02639           72.111     0.0130   0 0 0 0
G02072           N02657           N02639           63.246     0.0130   0 0 0 0
G02073           N02658           N02662           20.000     0.0130   0 0 0 0
G02074           N02659           N02785           100.000    0.0130   0 0 0 0
G02075           N02660           N02665           28.284     0.0130   0 0 0 0
G02076           N02661           N02668           82.462     0.0130   0 0 0 0
G02077           N02662           N02678           200.000    0.0130   0 0 0 0
G02078           N02663           N02073           44.721     0.0130   0 0 0 0
G02079           N02664           N02640           20.000     0.0130   0 0 0 0
G02080           N02665           N02656           181.108    0.0130   0 0 0 0
G02081           N02666           N00204           72.111     0.0130   0 0 0 0
G02082           N02667           N02666           161.245    0.0130   0 0 0 0
G02083           N02668           N02787           63.246     0.0130   0 0 0 0
G02084           N02669           N02785           89.443     0.0130   0 0 0 0
G02085           N02670           N02668           63.246     0.0130   0 0 0 0
G02086           N02671           N01380           40.000     0.0130   0 0 0 0
G02087           N02672           N02673           63.246     0.0130   0 0 0 0
G02088           N02673           N02080           40.000     0.0130   0 0 0 0
G02089           N02674           N02080           60.000     0.0130   0 0 0 0
G02090           N02675           N02671           63.246     0.0130   0 0 0 0
G02091           N02676           N02077           82.462     0.0130   0 0 0 0
G02092           N02677           N02669           200.000    0.0130   0 0 0 0
G02093           N02678           N02073           44.721     0.0130   0 0 0 0
G02094           N02679           N02077           40.000     0.0130   0 0 0 0
G02095           N02680           N02077           44.721     0.0130   0 0 0 0
G02096           N02681           N02680           28.284     0.0130   0 0 0 0
G02097           N02682           N02078           126.491    0.0130   0 0 0 0
G02098           N02685           N00697           63.246     0.0130   0 0 0 0
G02099           N02686           N00691           89.443     0.0130   0 0 0 0
G02100           N02688           N00696           107.703    0.0130   0 0 0 0
G02101           N02689           N02690           188.680    0.0130   0 0 0 0
G02102           N02690           N02686           100.000    0.0130   0 0 0 0
G02103           N02692           N02686           28.284     0.0130   0 0 0 0
G02104           N02693           N02692           169.706    0.0130   0 0 0 0
G02105           N02694           N02537           181.108    0.0130   0 0 0 0
G02106           N02695           N02537           161.245    0.0130   0 0 0 0
G02107           N02696           N00694           100.000    0.0130   0 0 0 0
G02108           N02697           N02698           181.108    0.0130   0 0 0 0
G02109           N02698           N01405           40.000     0.0130   0 0 0 0
G02110           N02699           N02605           44.721     0.0130   0 0 0 0
G02111           N02700           N02211           84.853     0.0130   0 0 0 0
G02112           N02701           N01849           80.000     0.0130   0 0 0 0
G02113           N02702           N01036           134.164    0.0130   0 0 0 0
G02114           N02703           N02211           63.246     0.0130   0 0 0 0
G02115           N02704           N02714           140.000    0.0130   0 0 0 0
G02116           N02705           N01947           72.111     0.0130   0 0 0 0
G02117           N02706           N01947           72.111     0.0130   0 0 0 0
G02118           N02707           N01947           28.284     0.0130   0 0 0 0
G02119           N02708           N01947           44.721     0.0130   0 0 0 0
G02120           N02709           N00135           100.000    0.0130   0 0 0 0
G02121           N02710           N02114           80.000     0.0130   0 0 0 0
G02122           N02711           N02109           80.000     0.0130   0 0 0 0
G02123           N02712           N02109           100.000    0.0130   0 0 0 0
G02124           N02713           N02813           56.569     0.0130   0 0 0 0
G02125           N02714           N00339           169.706    0.0130   0 0 0 0
G02126           N02715           N02811           60.000     0.0130   0 0 0 0
G02127           N02716           N02715           161.245    0.0130   0 0 0 0
G02128           N02717           N00334           20.000     0.0130   0 0 0 0
G02129           N02718           N01933           44.721     0.0130   0 0 0 0
G02130           N02719           N00200           100.000    0.0130   0 0 0 0
G02131           N02720           N01934           82.462     0.0130   0 0 0 0
G02132           N02721           N02410           100.000    0.0130   0 0 0 0
G02133           N02722           N02739           63.246     0.0130   0 0 0 0
G02134           N02723           N02722           216.333    0.0130   0 0 0 0
G02135           N02724           N02723           156.205    0.0130   0 0 0 0
G02136           N02726           N02447           72.111     0.0130   0 0 0 0
G02137           N02727           N02632           44.721     0.0130   0 0 0 0
G02138           N02728           N02727           220.907    0.0130   0 0 0 0
G02139           N02729           N02739           56.569     0.0130   0 0 0 0
G02140           N02730           N02804           56.569     0.0130   0 0 0 0
G02141           N02731           N02739           44.721     0.0130   0 0 0 0
G02142           N02734           N02739           72.111     0.0130   0 0 0 0
G02143           N02735           N02633           100.000    0.0130   0 0 0 0
G02144           N02736           N02735           200.000    0.0130   0 0 0 0
G02145           N02737           N02584           44.721     0.0130   0 0 0 0
G02146           N02738           N02737           200.000    0.0130   0 0 0 0
G02147           N02739           N02740           220.000    0.0130   0 0 0 0
G02148           N02740           N02447           101.980    0.0130   0 0 0 0
G02149           N02741           N02722           63.246     0.0130   0 0 0 0
G02150           N02742           N01599           80.000     0.0130   0 0 0 0
G02151           N02743           N00135           63.246     0.0130   0 0 0 0
G02152           N02744           N00236           20.000     0.0130   0 0 0 0
G02153           N02745           N00631           80.000     0.0130   0 0 0 0
G02154           N02746           N02149           84.853     0.0130   0 0 0 0
G02155           N02747           N01885           28.284     0.0130   0 0 0 0
G02156           N02748           N00610           44.721     0.0130   0 0 0 0
G02157           N02749           N00609           82.462     0.0130   0 0 0 0
G02158           N02750           N02749           184.391    0.0130   0 0 0 0
G02159           N02751           N00672           196.977    0.0130   0 0 0 0
G02160           N02752           N02750           44.721     0.0130   0 0 0 0
G02161           N02753           N00875           63.246     0.0130   0 0 0 0
G02162           N02754           N02753           100.000    0.0130   0 0 0 0
G02163           N02755           N01993           82.462     0.0130   0 0 0 0
G02164           N02761           N01884           44.721     0.0130   0 0 0 0
G02165           N02765           N02766           161.245    0.0130   0 0 0 0
G02166           N02766           N02819           63.246     0.0130   0 0 0 0
G02167           N02767           N02818           28.284     0.0130   0 0 0 0
G02168           N02768           N01701           161.245    0.0130   0 0 0 0
G02169           N02769           N00877           100.000    0.0130   0 0 0 0
G02170           N02775           N02774           82.462     0.0130   0 0 0 0
G02171           N02776           N01890           101.980    0.0130   0 0 0 0
G02172           N02777           N00483           89.443     0.0130   0 0 0 0
G02173           N02778           N00986           82.462     0.0130   0 0 0 0
G02174           N02779           N00506           89.443     0.0130   0 0 0 0
G02175           N02780           N00491           44.721     0.0130   0 0 0 0
G02176           N02781           N02780           84.853     0.0130   0 0 0 0
G02177           N02782           N02843           63.246     0.0130   0 0 0 0
G02178           N02785           N02519           89.443     0.0130   0 0 0 0
G02179           N02786           N02670           121.655    0.0130   0 0 0 0
G02180           N02787           N02056           56.569     0.0130   0 0 0 0
G02181           N02791           N00886           100.000    0.0130   0 0 0 0
G02182           N02792           N02791           113.137    0.0130   0 0 0 0
G02183           N02793           N02109           28.284     0.0130   0 0 0 0
G02184           N02794           N02793           200.998    0.0130   0 0 0 0
G02185           N02795           N02793           200.000    0.0130   0 0 0 0
G02186           N02796           N01952           63.246     0.0130   0 0 0 0
G02187           N02798           N02799           172.047    0.0130   0 0 0 0
G02188           N02799           N02739           28.284     0.0130   0 0 0 0
G02189           N02800           N02700           28.284     0.0130   0 0 0 0
G02190           N02801           N01031           100.000    0.0130   0 0 0 0
G02191           N02802           N02081           134.164    0.0130   0 0 0 0
G02192           N02803           N01510           84.853     0.0130   0 0 0 0
G02193           N02804           N02798           72.111     0.0130   0 0 0 0
G02194           N02805           N00745           28.284     0.0130   0 0 0 0
G02195           N02809           N01913           40.000     0.0130   0 0 0 0
G02196           N02810           N00909           72.111     0.0130   0 0 0 0
G02197           N02811           N02813           56.569     0.0130   0 0 0 0
G02198           N02812           N02211           28.284     0.0130   0 0 0 0
G02199           N02813           N02814           160.000    0.0130   0 0 0 0
G02200           N02814           N00336           44.721     0.0130   0 0 0 0
G02201           N02815           N01691           80.000     0.0130   0 0 0 0
G02202           N02816           N02765           40.000     0.0130   0 0 0 0
G02203           N02817           N02765           60.000     0.0130   0 0 0 0
G02204           N02818           N02769           82.462     0.0130   0 0 0 0
G02205           N02819           N00877           82.462     0.0130   0 0 0 0
G02206           N02820           N02821           161.245    0.0130   0 0 0 0
G02207           N02821           N01880           72.111     0.0130   0 0 0 0
G02208           N02822           N01879           72.111     0.0130   0 0 0 0
G02209           N02823           N01625           89.443     0.0130   0 0 0 0
G02210           N02824           N02823           184.391    0.0130   0 0 0 0
G02211           N02825           N02004           107.703    0.0130   0 0 0 0
G02212           N02826           N02266           200.000    0.0130   0 0 0 0
G02213           N02827           N02826           160.000    0.0130   0 0 0 0
G02214           N02828           N00774           100.000    0.0130   0 0 0 0
G02215           N02830           N02829           200.000    0.0130   0 0 0 0
G02216           N02831           N02409           161.245    0.0130   0 0 0 0
G02217           N02832           N02836           28.284     0.0130   0 0 0 0
G02218           N02833           N02845           89.443     0.0130   0 0 0 0
G02219           N02834           N01531           63.246     0.0130   0 0 0 0
G02220           N02835           N02834           120.000    0.0130   0 0 0 0
G02221           N02836           N02835           184.391    0.0130   0 0 0 0
G02222           N02838           N00074           82.462     0.0130   0 0 0 0
G02223           N02840           N01093           28.284     0.0130   0 0 0 0
G02224           N02841           N02840           196.977    0.0130   0 0 0 0
G02225           N02842           N01639           44.721     0.0130   0 0 0 0
G02226           N02843           N00993           60.000     0.0130   0 0 0 0
G02227           N02844           N00983           203.961    0.0130   0 0 0 0
G02228           N02846           N01130           181.108    0.0130   0 0 0 0
O00001           N00211           OUT01            20.000     0.0130   0 0 0 0
O00002           N00092           OUT02            20.000     0.0130   0 0 0 0
O00003           N02002           OUT03            20.000     0.0130   0 0 0 0
O00004           N01685           OUT04            20.000     0.0130   0 0 0 0
O00005           N00682           OUT05            20.000     0.0130   0 0 0 0
O00006           N01198           OUT06            20.000     0.0130   0 0 0 0
O00007           N01868           OUT07            20.000     0.0130   0 0 0 0
O00008           N00927           OUT08            20.000     0.0130   0 0 0 0
O00009           N02367           OUT09            20.000     0.0130   0 0 0 0
O00010           N02181           OUT10            20.000     0.0130   0 0 0 0
O00011           N00744           OUT11            20.000     0.0130   0 0 0 0
O00012           N01214           OUT12            20.000     0.0130   0 0 0 0
O00013           N02829           OUT13            20.000     0.0130   0 0 0 0
O00014           N02608           OUT14            20.000     0.0130   0 0 0 0
O00015           N01930           OUT15            20.000     0.0130   0 0 0 0
O00016           N02253           OUT16            20.000     0.0130   0 0 0 0
O00017           N02774           OUT17            20.000     0.0130   0 0 0 0
O00018           N01081           OUT18            20.000     0.0130   0 0 0 0
O00019           N00891           OUT19            20.000     0.0130   0 0 0 0
O00020           N01845           OUT20            20.000     0.0130   0 0 0 0
O00021           N02289           OUT21            20.000     0.0130   0 0 0 0
O00022           N01476           OUT22            20.000     0.0130   0 0 0 0
O00023           N00013           OUT23            20.000     0.0130   0 0 0 0
O00024           N02725           OUT24            20.000     0.0130   0 0 0 0
O00025           N02687           OUT25            20.000     0.0130   0 0 0 0
O00026           N02615           OUT26            20.000     0.0130   0 0 0 0
O00027           N02069           OUT27            20.000     0.0130   0 0 0 0
O00028           N01542           OUT28            20.000     0.0130   0 0 0 0
O00029           N01269           OUT29            20.000     0.0130   0 0 0 0
O00030           N01293           OUT30            20.000     0.0130   0 0 0 0
O00031           N01999           OUT31            20.000     0.0130   0 0 0 0
O00032           N00892           OUT32            20.000     0.0130   0 0 0 0
O00033           N00479           OUT33            20.000     0.0130   0 0 0 0
O00034           N01459           OUT34            20.000     0.0130   0 0 0 0
O00035           N01259           OUT35            20.000     0.0130   0 0 0 0
O00036           N02356           OUT36            20.000     0.0130   0 0 0 0
O00037           N02142           OUT37            20.000     0.0130   0 0 0 0
O00038           N01442           OUT38            20.000     0.0130   0 0 0 0
O00039           N00543           OUT39            20.000     0.0130   0 0 0 0
O00040           N00703           OUT40            20.000     0.0130   0 0 0 0
O00041           N02845           OUT41            20.000     0.0130   0 0 0 0
O00042           N01024           OUT42            20.000     0.0130   0 0 0 0
O00043           N01335           OUT43            20.000     0.0130   0 0 0 0
O00044           N01641           OUT44            20.000     0.0130   0 0 0 0
O00045           N01610           OUT45            20.000     0.0130   0 0 0 0
O00046           N01549           OUT46            20.000     0.0130   0 0 0 0
O00047           N00886           OUT47            20.000     0.0130   0 0 0 0
O00048           N01329           OUT48            20.000     0.0130   0 0 0 0

[XSECTIONS]
G00001           CIRCULAR 0.800    0 0 0 1
G00002           CIRCULAR 0.800    0 0 0 1
G00003           CIRCULAR 0.800    0 0 0 1
G00004           CIRCULAR 0.800    0 0 0 1
G00005           CIRCULAR 0.800    0 0 0 1
G00006           CIRCULAR 0.800    0 0 0 1
G00007           CIRCULAR 0.800    0 0 0 1
G00008           CIRCULAR 0.800    0 0 0 1
G00009           CIRCULAR 0.800    0 0 0 1
G00010           CIRCULAR 0.800    0 0 0 1
G00011           CIRCULAR 0.800    0 0 0 1
G00012           CIRCULAR 1.000    0 0 0 1
G00013           CIRCULAR 0.800    0 0 0 1
G00014           CIRCULAR 0.800    0 0 0 1
G00015           CIRCULAR 0.800    0 0 0 1
G00016           CIRCULAR 0.800    0 0 0 1
G00017           CIRCULAR 0.800    0 0 0 1
G00018           CIRCULAR 0.800    0 0 0 1
G00019           CIRCULAR 0.800    0 0 0 1
G00020           CIRCULAR 0.800    0 0 0 1
G00021           CIRCULAR 0.800    0 0 0 1
G00022           CIRCULAR 0.800    0 0 0 1
G00023           CIRCULAR 0.800    0 0 0 1
G00024           CIRCULAR 0.800    0 0 0 1
G00025           CIRCULAR 0.800    0 0 0 1
G00026           CIRCULAR 0.800    0 0 0 1
G00027           CIRCULAR 0.800    0 0 0 1
G00028           CIRCULAR 0.800    0 0 0 1
G00029           CIRCULAR 0.800    0 0 0 1
G00030           CIRCULAR 0.800    0 0 0 1
G00031           CIRCULAR 0.800    0 0 0 1
G00032           CIRCULAR 0.800    0 0 0 1
G00033           CIRCULAR 0.800    0 0 0 1
G00034           CIRCULAR 0.800    0 0 0 1
G00035           CIRCULAR 0.800    0 0 0 1
G00036           CIRCULAR 0.800    0 0 0 1
G00037           CIRCULAR 0.800    0 0 0 1
G00038           CIRCULAR 0.800    0 0 0 1
G00039           CIRCULAR 0.800    0 0 0 1
G00040           CIRCULAR 0.800    0 0 0 1
G00041           CIRCULAR 0.800    0 0 0 1
G00042           CIRCULAR 0.800    0 0 0 1
G00043           CIRCULAR 0.800    0 0 0 1
G00044           CIRCULAR 0.800    0 0 0 1
G00045           CIRCULAR 0.800    0 0 0 1
G00046           CIRCULAR 0.800    0 0 0 1
G00047           CIRCULAR 0.800    0 0 0 1
G00048           CIRCULAR 0.800    0 0 0 1
G00049           CIRCULAR 0.800    0 0 0 1
G00050           CIRCULAR 0.800    0 0 0 1
G00051           CIRCULAR 0.800    0 0 0 1
G00052           CIRCULAR 0.800    0 0 0 1
G00053           CIRCULAR 0.800    0 0 0 1
G00054           CIRCULAR 0.800    0 0 0 1
G00055           CIRCULAR 0.800    0 0 0 1
G00056           CIRCULAR 0.800    0 0 0 1
G00057           CIRCULAR 0.800    0 0 0 1
G00058           CIRCULAR 0.800    0 0 0 1
G00059           CIRCULAR 0.800    0 0 0 1
G00060           CIRCULAR 1.000    0 0 0 1
G00061           CIRCULAR 1.000    0 0 0 1
G00062           CIRCULAR 1.000    0 0 0 1
G00063           CIRCULAR 0.800    0 0 0 1
G00064           CIRCULAR 0.800    0 0 0 1
G00065           CIRCULAR 0.800    0 0 0 1
G00066           CIRCULAR 1.000    0 0 0 1
G00067           CIRCULAR 0.800    0 0 0 1
G00068           CIRCULAR 0.800    0 0 0 1
G00069           CIRCULAR 1.000    0 0 0 1
G00070           CIRCULAR 0.800    0 0 0 1
G00071           CIRCULAR 0.800    0 0 0 1
G00072           CIRCULAR 0.800    0 0 0 1
G00073           CIRCULAR 1.000    0 0 0 1
G00074           CIRCULAR 0.800    0 0 0 1
G00075           CIRCULAR 0.800    0 0 0 1
G00076           CIRCULAR 0.800    0 0 0 1
G00077           CIRCULAR 0.800    0 0 0 1
G00078           CIRCULAR 0.800    0 0 0 1
G00079           CIRCULAR 0.800    0 0 0 1
G00080           CIRCULAR 0.800    0 0 0 1
G00081           CIRCULAR 0.800    0 0 0 1
G00082           CIRCULAR 0.800    0 0 0 1
G00083           CIRCULAR 0.800    0 0 0 1
G00084           CIRCULAR 0.800    0 0 0 1
G00085           CIRCULAR 0.800    0 0 0 1
G00086           CIRCULAR 1.000    0 0 0 1
G00087           CIRCULAR 0.800    0 0 0 1
G00088           CIRCULAR 0.800    0 0 0 1
G00089           CIRCULAR 1.000    0 0 0 1
G00090           CIRCULAR 0.800    0 0 0 1
G00091           CIRCULAR 0.800    0 0 0 1
G00092           CIRCULAR 0.800    0 0 0 1
G00093           CIRCULAR 0.800    0 0 0 1
G00094           CIRCULAR 0.800    0 0 0 1
G00095           CIRCULAR 0.800    0 0 0 1
G00096           CIRCULAR 0.800    0 0 0 1
G00097           CIRCULAR 0.800    0 0 0 1
G00098           CIRCULAR 0.800    0 0 0 1
G00099           CIRCULAR 0.800    0 0 0 1
G00100           CIRCULAR 1.000    0 0 0 1
G00101           CIRCULAR 0.800    0 0 0 1
G00102           CIRCULAR 0.800    0 0 0 1
G00103           CIRCULAR 1.000    0 0 0 1
G00104           CIRCULAR 0.800    0 0 0 1
G00105           CIRCULAR 0.800    0 0 0 1
G00106           CIRCULAR 0.800    0 0 0 1
G00107           CIRCULAR 0.800    0 0 0 1
G00108           CIRCULAR 0.800    0 0 0 1
G00109           CIRCULAR 0.800    0 0 0 1
G00110           CIRCULAR 0.800    0 0 0 1
G00111           CIRCULAR 0.800    0 0 0 1
G00112           CIRCULAR 0.800    0 0 0 1
G00113           CIRCULAR 1.000    0 0 0 1
G00114           CIRCULAR 1.000    0 0 0 1
G00115           CIRCULAR 1.000    0 0 0 1
G00116           CIRCULAR 0.800    0 0 0 1
G00117           CIRCULAR 0.800    0 0 0 1
G00118           CIRCULAR 1.000    0 0 0 1
G00119           CIRCULAR 0.800    0 0 0 1
G00120           CIRCULAR 0.800    0 0 0 1
G00121           CIRCULAR 0.800    0 0 0 1
G00122           CIRCULAR 0.800    0 0 0 1
G00123           CIRCULAR 0.800    0 0 0 1
G00124           CIRCULAR 0.800    0 0 0 1
G00125           CIRCULAR 0.800    0 0 0 1
G00126           CIRCULAR 0.800    0 0 0 1
G00127           CIRCULAR 0.800    0 0 0 1
G00128           CIRCULAR 0.800    0 0 0 1
G00129           CIRCULAR 0.800    0 0 0 1
G00130           CIRCULAR 0.800    0 0 0 1
G00131           CIRCULAR 0.800    0 0 0 1
G00132           CIRCULAR 0.800    0 0 0 1
G00133           CIRCULAR 0.800    0 0 0 1
G00134           CIRCULAR 1.000    0 0 0 1
G00135           CIRCULAR 0.800    0 0 0 1
G00136           CIRCULAR 0.800    0 0 0 1
G00137           CIRCULAR 0.800    0 0 0 1
G00138           CIRCULAR 0.800    0 0 0 1
G00139           CIRCULAR 0.800    0 0 0 1
G00140           CIRCULAR 0.800    0 0 0 1
G00141           CIRCULAR 0.800    0 0 0 1
G00142           CIRCULAR 0.800    0 0 0 1
G00143           CIRCULAR 0.800    0 0 0 1
G00144           CIRCULAR 0.800    0 0 0 1
G00145           CIRCULAR 0.800    0 0 0 1
G00146           CIRCULAR 0.800    0 0 0 1
G00147           CIRCULAR 1.000    0 0 0 1
G00148           CIRCULAR 0.800    0 0 0 1
G00149           CIRCULAR 0.800    0 0 0 1
G00150           CIRCULAR 1.000    0 0 0 1
G00151           CIRCULAR 1.000    0 0 0 1
G00152           CIRCULAR 0.800    0 0 0 1
G00153           CIRCULAR 1.000    0 0 0 1
G00154           CIRCULAR 0.800    0 0 0 1
G00155           CIRCULAR 0.800    0 0 0 1
G00156           CIRCULAR 0.800    0 0 0 1
G00157           CIRCULAR 0.800    0 0 0 1
G00158           CIRCULAR 0.800    0 0 0 1
G00159           CIRCULAR 0.800    0 0 0 1
G00160           CIRCULAR 0.800    0 0 0 1
G00161           CIRCULAR 0.800    0 0 0 1
G00162           CIRCULAR 0.800    0 0 0 1
G00163           CIRCULAR 0.800    0 0 0 1
G00164           CIRCULAR 0.800    0 0 0 1
G00165           CIRCULAR 0.800    0 0 0 1
G00166           CIRCULAR 0.800    0 0 0 1
G00167           CIRCULAR 0.800    0 0 0 1
G00168           CIRCULAR 0.800    0 0 0 1
G00169           CIRCULAR 0.800    0 0 0 1
G00170           CIRCULAR 0.800    0 0 0 1
G00171           CIRCULAR 0.800    0 0 0 1
G00172           CIRCULAR 1.000    0 0 0 1
G00173           CIRCULAR 0.800    0 0 0 1
G00174           CIRCULAR 0.800    0 0 0 1
G00175           CIRCULAR 0.800    0 0 0 1
G00176           CIRCULAR 1.000    0 0 0 1
G00177           CIRCULAR 1.200    0 0 0 1
G00178           CIRCULAR 0.800    0 0 0 1
G00179           CIRCULAR 0.800    0 0 0 1
G00180           CIRCULAR 0.800    0 0 0 1
G00181           CIRCULAR 0.800    0 0 0 1
G00182           CIRCULAR 0.800    0 0 0 1
G00183           CIRCULAR 0.800    0 0 0 1
G00184           CIRCULAR 0.800    0 0 0 1
G00185           CIRCULAR 0.800    0 0 0 1
G00186           CIRCULAR 0.800    0 0 0 1
G00187           CIRCULAR 0.800    0 0 0 1
G00188           CIRCULAR 1.000    0 0 0 1
G00189           CIRCULAR 1.000    0 0 0 1
G00190           CIRCULAR 0.800    0 0 0 1
G00191           CIRCULAR 0.800    0 0 0 1
G00192           CIRCULAR 1.000    0 0 0 1
G00193           CIRCULAR 1.000    0 0 0 1
G00194           CIRCULAR 1.000    0 0 0 1
G00195           CIRCULAR 1.200    0 0 0 1
G00196           CIRCULAR 1.200    0 0 0 1
G00197           CIRCULAR 1.200    0 0 0 1
G00198           CIRCULAR 0.800    0 0 0 1
G00199           CIRCULAR 0.800    0 0 0 1
G00200           CIRCULAR 0.800    0 0 0 1
G00201           CIRCULAR 0.800    0 0 0 1
G00202           CIRCULAR 0.800    0 0 0 1
G00203           CIRCULAR 0.800    0 0 0 1
G00204           CIRCULAR 0.800    0 0 0 1
G00205           CIRCULAR 0.800    0 0 0 1
G00206           CIRCULAR 0.800    0 0 0 1
G00207           CIRCULAR 0.800    0 0 0 1
G00208           CIRCULAR 0.800    0 0 0 1
G00209           CIRCULAR 1.200    0 0 0 1
G00210           CIRCULAR 0.800    0 0 0 1
G00211           CIRCULAR 0.800    0 0 0 1
G00212           CIRCULAR 0.800    0 0 0 1
G00213           CIRCULAR 0.800    0 0 0 1
G00214           CIRCULAR 1.000    0 0 0 1
G00215           CIRCULAR 0.800    0 0 0 1
G00216           CIRCULAR 0.800    0 0 0 1
G00217           CIRCULAR 0.800    0 0 0 1
G00218           CIRCULAR 0.800    0 0 0 1
G00219           CIRCULAR 0.800    0 0 0 1
G00220           CIRCULAR 0.800    0 0 0 1
G00221           CIRCULAR 0.800    0 0 0 1
G00222           CIRCULAR 0.800    0 0 0 1
G00223           CIRCULAR 0.800    0 0 0 1
G00224           CIRCULAR 0.800    0 0 0 1
G00225           CIRCULAR 0.800    0 0 0 1
G00226           CIRCULAR 0.800    0 0 0 1
G00227           CIRCULAR 0.800    0 0 0 1
G00228           CIRCULAR 0.800    0 0 0 1
G00229           CIRCULAR 0.800    0 0 0 1
G00230           CIRCULAR 0.800    0 0 0 1
G00231           CIRCULAR 0.800    0 0 0 1
G00232           CIRCULAR 0.800    0 0 0 1
G00233           CIRCULAR 0.800    0 0 0 1
G00234           CIRCULAR 0.800    0 0 0 1
G00235           CIRCULAR 1.000    0 0 0 1
G00236           CIRCULAR 0.800    0 0 0 1
G00237           CIRCULAR 0.800    0 0 0 1
G00238           CIRCULAR 0.800    0 0 0 1
G00239           CIRCULAR 0.800    0 0 0 1
G00240           CIRCULAR 1.000    0 0 0 1
G00241           CIRCULAR 1.000    0 0 0 1
G00242           CIRCULAR 0.800    0 0 0 1
G00243           CIRCULAR 0.800    0 0 0 1
G00244           CIRCULAR 0.800    0 0 0 1
G00245           CIRCULAR 0.800    0 0 0 1
G00246           CIRCULAR 0.800    0 0 0 1
G00247           CIRCULAR 1.200    0 0 0 1
G00248           CIRCULAR 0.800    0 0 0 1
G00249           CIRCULAR 0.800    0 0 0 1
G00250           CIRCULAR 0.800    0 0 0 1
G00251           CIRCULAR 0.800    0 0 0 1
G00252           CIRCULAR 0.800    0 0 0 1
G00253           CIRCULAR 0.800    0 0 0 1
G00254           CIRCULAR 0.800    0 0 0 1
G00255           CIRCULAR 0.800    0 0 0 1
G00256           CIRCULAR 0.800    0 0 0 1
G00257           CIRCULAR 0.800    0 0 0 1
G00258           CIRCULAR 0.800    0 0 0 1
G00259           CIRCULAR 0.800    0 0 0 1
G00260           CIRCULAR 0.800    0 0 0 1
G00261           CIRCULAR 0.800    0 0 0 1
G00262           CIRCULAR 0.800    0 0 0 1
G00263           CIRCULAR 0.800    0 0 0 1
G00264           CIRCULAR 0.800    0 0 0 1
G00265           CIRCULAR 0.800    0 0 0 1
G00266           CIRCULAR 0.800    0 0 0 1
G00267           CIRCULAR 0.800    0 0 0 1
G00268           CIRCULAR 0.800    0 0 0 1
G00269           CIRCULAR 0.800    0 0 0 1
G00270           CIRCULAR 1.000    0 0 0 1
G00271           CIRCULAR 0.800    0 0 0 1
G00272           CIRCULAR 0.800    0 0 0 1
G00273           CIRCULAR 0.800    0 0 0 1
G00274           CIRCULAR 0.800    0 0 0 1
G00275           CIRCULAR 0.800    0 0 0 1
G00276           CIRCULAR 1.000    0 0 0 1
G00277           CIRCULAR 0.800    0 0 0 1
G00278           CIRCULAR 0.800    0 0 0 1
G00279           CIRCULAR 1.000    0 0 0 1
G00280           CIRCULAR 0.800    0 0 0 1
G00281           CIRCULAR 1.000    0 0 0 1
G00282           CIRCULAR 1.000    0 0 0 1
G00283           CIRCULAR 0.800    0 0 0 1
G00284           CIRCULAR 0.800    0 0 0 1
G00285           CIRCULAR 0.800    0 0 0 1
G00286           CIRCULAR 0.800    0 0 0 1
G00287           CIRCULAR 0.800    0 0 0 1
G00288           CIRCULAR 0.800    0 0 0 1
G00289           CIRCULAR 0.800    0 0 0 1
G00290           CIRCULAR 0.800    0 0 0 1
G00291           CIRCULAR 0.800    0 0 0 1
G00292           CIRCULAR 0.800    0 0 0 1
G00293           CIRCULAR 1.000    0 0 0 1
G00294           CIRCULAR 1.000    0 0 0 1
G00295           CIRCULAR 0.800    0 0 0 1
G00296           CIRCULAR 0.800    0 0 0 1
G00297           CIRCULAR 1.000    0 0 0 1
G00298           CIRCULAR 1.000    0 0 0 1
G00299           CIRCULAR 0.800    0 0 0 1
G00300           CIRCULAR 0.800    0 0 0 1
G00301           CIRCULAR 0.800    0 0 0 1
G00302           CIRCULAR 0.800    0 0 0 1
G00303           CIRCULAR 0.800    0 0 0 1
G00304           CIRCULAR 0.800    0 0 0 1
G00305           CIRCULAR 1.000    0 0 0 1
G00306           CIRCULAR 1.000    0 0 0 1
G00307           CIRCULAR 0.800    0 0 0 1
G00308           CIRCULAR 0.800    0 0 0 1
G00309           CIRCULAR 0.800    0 0 0 1
G00310           CIRCULAR 0.800    0 0 0 1
G00311           CIRCULAR 0.800    0 0 0 1
G00312           CIRCULAR 0.800    0 0 0 1
G00313           CIRCULAR 0.800    0 0 0 1
G00314           CIRCULAR 0.800    0 0 0 1
G00315           CIRCULAR 0.800    0 0 0 1
G00316           CIRCULAR 0.800    0 0 0 1
G00317           CIRCULAR 0.800    0 0 0 1
G00318           CIRCULAR 0.800    0 0 0 1
G00319           CIRCULAR 0.800    0 0 0 1
G00320           CIRCULAR 0.800    0 0 0 1
G00321           CIRCULAR 0.800    0 0 0 1
G00322           CIRCULAR 0.800    0 0 0 1
G00323           CIRCULAR 0.800    0 0 0 1
G00324           CIRCULAR 0.800    0 0 0 1
G00325           CIRCULAR 0.800    0 0 0 1
G00326           CIRCULAR 0.800    0 0 0 1
G00327           CIRCULAR 0.800    0 0 0 1
G00328           CIRCULAR 0.800    0 0 0 1
G00329           CIRCULAR 1.000    0 0 0 1
G00330           CIRCULAR 1.000    0 0 0 1
G00331           CIRCULAR 0.800    0 0 0 1
G00332           CIRCULAR 0.800    0 0 0 1
G00333           CIRCULAR 1.000    0 0 0 1
G00334           CIRCULAR 0.800    0 0 0 1
G00335           CIRCULAR 0.800    0 0 0 1
G00336           CIRCULAR 0.800    0 0 0 1
G00337           CIRCULAR 0.800    0 0 0 1
G00338           CIRCULAR 0.800    0 0 0 1
G00339           CIRCULAR 0.800    0 0 0 1
G00340           CIRCULAR 0.800    0 0 0 1
G00341           CIRCULAR 1.000    0 0 0 1
G00342           CIRCULAR 1.000    0 0 0 1
G00343           CIRCULAR 1.000    0 0 0 1
G00344           CIRCULAR 1.000    0 0 0 1
G00345           CIRCULAR 1.200    0 0 0 1
G00346           CIRCULAR 0.800    0 0 0 1
G00347           CIRCULAR 0.800    0 0 0 1
G00348           CIRCULAR 0.800    0 0 0 1
G00349           CIRCULAR 0.800    0 0 0 1
G00350           CIRCULAR 0.800    0 0 0 1
G00351           CIRCULAR 0.800    0 0 0 1
G00352           CIRCULAR 1.000    0 0 0 1
G00353           CIRCULAR 0.800    0 0 0 1
G00354           CIRCULAR 0.800    0 0 0 1
G00355           CIRCULAR 0.800    0 0 0 1
G00356           CIRCULAR 1.000    0 0 0 1
G00357           CIRCULAR 1.000    0 0 0 1
G00358           CIRCULAR 0.800    0 0 0 1
G00359           CIRCULAR 0.800    0 0 0 1
G00360           CIRCULAR 0.800    0 0 0 1
G00361           CIRCULAR 0.800    0 0 0 1
G00362           CIRCULAR 0.800    0 0 0 1
G00363           CIRCULAR 0.800    0 0 0 1
G00364           CIRCULAR 0.800    0 0 0 1
G00365           CIRCULAR 1.200    0 0 0 1
G00366           CIRCULAR 0.800    0 0 0 1
G00367           CIRCULAR 0.800    0 0 0 1
G00368           CIRCULAR 0.800    0 0 0 1
G00369           CIRCULAR 0.800    0 0 0 1
G00370           CIRCULAR 0.800    0 0 0 1
G00371           CIRCULAR 0.800    0 0 0 1
G00372           CIRCULAR 0.800    0 0 0 1
G00373           CIRCULAR 0.800    0 0 0 1
G00374           CIRCULAR 0.800    0 0 0 1
G00375           CIRCULAR 0.800    0 0 0 1
G00376           CIRCULAR 0.800    0 0 0 1
G00377           CIRCULAR 1.000    0 0 0 1
G00378           CIRCULAR 0.800    0 0 0 1
G00379           CIRCULAR 0.800    0 0 0 1
G00380           CIRCULAR 0.800    0 0 0 1
G00381           CIRCULAR 1.000    0 0 0 1
G00382           CIRCULAR 0.800    0 0 0 1
G00383           CIRCULAR 1.200    0 0 0 1
G00384           CIRCULAR 0.800    0 0 0 1
G00385           CIRCULAR 0.800    0 0 0 1
G00386           CIRCULAR 0.800    0 0 0 1
G00387           CIRCULAR 0.800    0 0 0 1
G00388           CIRCULAR 0.800    0 0 0 1
G00389           CIRCULAR 0.800    0 0 0 1
G00390           CIRCULAR 1.000    0 0 0 1
G00391           CIRCULAR 0.800    0 0 0 1
G00392           CIRCULAR 0.800    0 0 0 1
G00393           CIRCULAR 1.000    0 0 0 1
G00394           CIRCULAR 1.000    0 0 0 1
G00395           CIRCULAR 1.000    0 0 0 1
G00396           CIRCULAR 0.800    0 0 0 1
G00397           CIRCULAR 0.800    0 0 0 1
G00398           CIRCULAR 1.200    0 0 0 1
G00399           CIRCULAR 1.000    0 0 0 1
G00400           CIRCULAR 1.000    0 0 0 1
G00401           CIRCULAR 0.800    0 0 0 1
G00402           CIRCULAR 0.800    0 0 0 1
G00403           CIRCULAR 0.800    0 0 0 1
G00404           CIRCULAR 0.800    0 0 0 1
G00405           CIRCULAR 0.800    0 0 0 1
G00406           CIRCULAR 0.800    0 0 0 1
G00407           CIRCULAR 0.800    0 0 0 1
G00408           CIRCULAR 0.800    0 0 0 1
G00409           CIRCULAR 1.200    0 0 0 1
G00410           CIRCULAR 0.800    0 0 0 1
G00411           CIRCULAR 1.000    0 0 0 1
G00412           CIRCULAR 1.000    0 0 0 1
G00413           CIRCULAR 1.000    0 0 0 1
G00414           CIRCULAR 0.800    0 0 0 1
G00415           CIRCULAR 0.800    0 0 0 1
G00416           CIRCULAR 0.800    0 0 0 1
G00417           CIRCULAR 0.800    0 0 0 1
G00418           CIRCULAR 0.800    0 0 0 1
G00419           CIRCULAR 0.800    0 0 0 1
G00420           CIRCULAR 1.000    0 0 0 1
G00421           CIRCULAR 1.000    0 0 0 1
G00422           CIRCULAR 0.800    0 0 0 1
G00423           CIRCULAR 0.800    0 0 0 1
G00424           CIRCULAR 1.000    0 0 0 1
G00425           CIRCULAR 0.800    0 0 0 1
G00426           CIRCULAR 0.800    0 0 0 1
G00427           CIRCULAR 0.800    0 0 0 1
G00428           CIRCULAR 0.800    0 0 0 1
G00429           CIRCULAR 1.000    0 0 0 1
G00430           CIRCULAR 1.000    0 0 0 1
G00431           CIRCULAR 0.800    0 0 0 1
G00432           CIRCULAR 0.800    0 0 0 1
G00433           CIRCULAR 0.800    0 0 0 1
G00434           CIRCULAR 0.800    0 0 0 1
G00435           CIRCULAR 0.800    0 0 0 1
G00436           CIRCULAR 0.800    0 0 0 1
G00437           CIRCULAR 0.800    0 0 0 1
G00438           CIRCULAR 0.800    0 0 0 1
G00439           CIRCULAR 1.000    0 0 0 1
G00440           CIRCULAR 0.800    0 0 0 1
G00441           CIRCULAR 1.000    0 0 0 1
G00442           CIRCULAR 0.800    0 0 0 1
G00443           CIRCULAR 0.800    0 0 0 1
G00444           CIRCULAR 0.800    0 0 0 1
G00445           CIRCULAR 0.800    0 0 0 1
G00446           CIRCULAR 1.000    0 0 0 1
G00447           CIRCULAR 0.800    0 0 0 1
G00448           CIRCULAR 0.800    0 0 0 1
G00449           CIRCULAR 0.800    0 0 0 1
G00450           CIRCULAR 0.800    0 0 0 1
G00451           CIRCULAR 0.800    0 0 0 1
G00452           CIRCULAR 0.800    0 0 0 1
G00453           CIRCULAR 0.800    0 0 0 1
G00454           CIRCULAR 0.800    0 0 0 1
G00455           CIRCULAR 0.800    0 0 0 1
G00456           CIRCULAR 0.800    0 0 0 1
G00457           CIRCULAR 0.800    0 0 0 1
G00458           CIRCULAR 1.000    0 0 0 1
G00459           CIRCULAR 0.800    0 0 0 1
G00460           CIRCULAR 0.800    0 0 0 1
G00461           CIRCULAR 0.800    0 0 0 1
G00462           CIRCULAR 0.800    0 0 0 1
G00463           CIRCULAR 1.000    0 0 0 1
G00464           CIRCULAR 0.800    0 0 0 1
G00465           CIRCULAR 0.800    0 0 0 1
G00466           CIRCULAR 0.800    0 0 0 1
G00467           CIRCULAR 0.800    0 0 0 1
G00468           CIRCULAR 0.800    0 0 0 1
G00469           CIRCULAR 0.800    0 0 0 1
G00470           CIRCULAR 0.800    0 0 0 1
G00471           CIRCULAR 0.800    0 0 0 1
G00472           CIRCULAR 0.800    0 0 0 1
G00473           CIRCULAR 0.800    0 0 0 1
G00474           CIRCULAR 1.000    0 0 0 1
G00475           CIRCULAR 1.000    0 0 0 1
G00476           CIRCULAR 0.800    0 0 0 1
G00477           CIRCULAR 0.800    0 0 0 1
G00478           CIRCULAR 1.200    0 0 0 1
G00479           CIRCULAR 0.800    0 0 0 1
G00480           CIRCULAR 0.800    0 0 0 1
G00481           CIRCULAR 0.800    0 0 0 1
G00482           CIRCULAR 0.800    0 0 0 1
G00483           CIRCULAR 0.800    0 0 0 1
G00484           CIRCULAR 0.800    0 0 0 1
G00485           CIRCULAR 0.800    0 0 0 1
G00486           CIRCULAR 1.000    0 0 0 1
G00487           CIRCULAR 1.000    0 0 0 1
G00488           CIRCULAR 1.000    0 0 0 1
G00489           CIRCULAR 1.000    0 0 0 1
G00490           CIRCULAR 0.800    0 0 0 1
G00491           CIRCULAR 0.800    0 0 0 1
G00492           CIRCULAR 0.800    0 0 0 1
G00493           CIRCULAR 0.800    0 0 0 1
G00494           CIRCULAR 0.800    0 0 0 1
G00495           CIRCULAR 1.000    0 0 0 1
G00496           CIRCULAR 1.000    0 0 0 1
G00497           CIRCULAR 0.800    0 0 0 1
G00498           CIRCULAR 0.800    0 0 0 1
G00499           CIRCULAR 0.800    0 0 0 1
G00500           CIRCULAR 1.000    0 0 0 1
G00501           CIRCULAR 1.000    0 0 0 1
G00502           CIRCULAR 1.000    0 0 0 1
G00503           CIRCULAR 0.800    0 0 0 1
G00504           CIRCULAR 1.000    0 0 0 1
G00505           CIRCULAR 0.800    0 0 0 1
G00506           CIRCULAR 0.800    0 0 0 1
G00507           CIRCULAR 0.800    0 0 0 1
G00508           CIRCULAR 0.800    0 0 0 1
G00509           CIRCULAR 1.200    0 0 0 1
G00510           CIRCULAR 1.200    0 0 0 1
G00511           CIRCULAR 0.800    0 0 0 1
G00512           CIRCULAR 0.800    0 0 0 1
G00513           CIRCULAR 0.800    0 0 0 1
G00514           CIRCULAR 0.800    0 0 0 1
G00515           CIRCULAR 0.800    0 0 0 1
G00516           CIRCULAR 0.800    0 0 0 1
G00517           CIRCULAR 0.800    0 0 0 1
G00518           CIRCULAR 0.800    0 0 0 1
G00519           CIRCULAR 0.800    0 0 0 1
G00520           CIRCULAR 0.800    0 0 0 1
G00521           CIRCULAR 0.800    0 0 0 1
G00522           CIRCULAR 0.800    0 0 0 1
G00523           CIRCULAR 0.800    0 0 0 1
G00524           CIRCULAR 0.800    0 0 0 1
G00525           CIRCULAR 0.800    0 0 0 1
G00526           CIRCULAR 0.800    0 0 0 1
G00527           CIRCULAR 0.800    0 0 0 1
G00528           CIRCULAR 0.800    0 0 0 1
G00529           CIRCULAR 0.800    0 0 0 1
G00530           CIRCULAR 0.800    0 0 0 1
G00531           CIRCULAR 1.000    0 0 0 1
G00532           CIRCULAR 0.800    0 0 0 1
G00533           CIRCULAR 1.000    0 0 0 1
G00534           CIRCULAR 1.000    0 0 0 1
G00535           CIRCULAR 0.800    0 0 0 1
G00536           CIRCULAR 0.800    0 0 0 1
G00537           CIRCULAR 0.800    0 0 0 1
G00538           CIRCULAR 0.800    0 0 0 1
G00539           CIRCULAR 1.000    0 0 0 1
G00540           CIRCULAR 0.800    0 0 0 1
G00541           CIRCULAR 0.800    0 0 0 1
G00542           CIRCULAR 1.000    0 0 0 1
G00543           CIRCULAR 1.000    0 0 0 1
G00544           CIRCULAR 0.800    0 0 0 1
G00545           CIRCULAR 0.800    0 0 0 1
G00546           CIRCULAR 0.800    0 0 0 1
G00547           CIRCULAR 0.800    0 0 0 1
G00548           CIRCULAR 0.800    0 0 0 1
G00549           CIRCULAR 0.800    0 0 0 1
G00550           CIRCULAR 0.800    0 0 0 1
G00551           CIRCULAR 0.800    0 0 0 1
G00552           CIRCULAR 0.800    0 0 0 1
G00553           CIRCULAR 1.000    0 0 0 1
G00554           CIRCULAR 0.800    0 0 0 1
G00555           CIRCULAR 0.800    0 0 0 1
G00556           CIRCULAR 0.800    0 0 0 1
G00557           CIRCULAR 1.000    0 0 0 1
G00558           CIRCULAR 0.800    0 0 0 1
G00559           CIRCULAR 0.800    0 0 0 1
G00560           CIRCULAR 0.800    0 0 0 1
G00561           CIRCULAR 0.800    0 0 0 1
G00562           CIRCULAR 0.800    0 0 0 1
G00563           CIRCULAR 0.800    0 0 0 1
G00564           CIRCULAR 0.800    0 0 0 1
G00565           CIRCULAR 0.800    0 0 0 1
G00566           CIRCULAR 1.000    0 0 0 1
G00567           CIRCULAR 0.800    0 0 0 1
G00568           CIRCULAR 0.800    0 0 0 1
G00569           CIRCULAR 0.800    0 0 0 1
G00570           CIRCULAR 0.800    0 0 0 1
G00571           CIRCULAR 0.800    0 0 0 1
G00572           CIRCULAR 0.800    0 0 0 1
G00573           CIRCULAR 0.800    0 0 0 1
G00574           CIRCULAR 0.800    0 0 0 1
G00575           CIRCULAR 1.200    0 0 0 1
G00576           CIRCULAR 0.800    0 0 0 1
G00577           CIRCULAR 0.800    0 0 0 1
G00578           CIRCULAR 0.800    0 0 0 1
G00579           CIRCULAR 0.800    0 0 0 1
G00580           CIRCULAR 1.200    0 0 0 1
G00581           CIRCULAR 0.800    0 0 0 1
G00582           CIRCULAR 1.000    0 0 0 1
G00583           CIRCULAR 0.800    0 0 0 1
G00584           CIRCULAR 1.000    0 0 0 1
G00585           CIRCULAR 0.800    0 0 0 1
G00586           CIRCULAR 1.200    0 0 0 1
G00587           CIRCULAR 1.200    0 0 0 1
G00588           CIRCULAR 0.800    0 0 0 1
G00589           CIRCULAR 1.000    0 0 0 1
G00590           CIRCULAR 0.800    0 0 0 1
G00591           CIRCULAR 0.800    0 0 0 1
G00592           CIRCULAR 0.800    0 0 0 1
G00593           CIRCULAR 1.000    0 0 0 1
G00594           CIRCULAR 1.000    0 0 0 1
G00595           CIRCULAR 0.800    0 0 0 1
G00596           CIRCULAR 1.000    0 0 0 1
G00597           CIRCULAR 1.000    0 0 0 1
G00598           CIRCULAR 0.800    0 0 0 1
G00599           CIRCULAR 0.800    0 0 0 1
G00600           CIRCULAR 0.800    0 0 0 1
G00601           CIRCULAR 1.000    0 0 0 1
G00602           CIRCULAR 1.000    0 0 0 1
G00603           CIRCULAR 0.800    0 0 0 1
G00604           CIRCULAR 0.800    0 0 0 1
G00605           CIRCULAR 0.800    0 0 0 1
G00606           CIRCULAR 0.800    0 0 0 1
G00607           CIRCULAR 0.800    0 0 0 1
G00608           CIRCULAR 0.800    0 0 0 1
G00609           CIRCULAR 1.000    0 0 0 1
G00610           CIRCULAR 1.000    0 0 0 1
G00611           CIRCULAR 1.000    0 0 0 1
G00612           CIRCULAR 0.800    0 0 0 1
G00613           CIRCULAR 0.800    0 0 0 1
G00614           CIRCULAR 0.800    0 0 0 1
G00615           CIRCULAR 0.800    0 0 0 1
G00616           CIRCULAR 1.000    0 0 0 1
G00617           CIRCULAR 1.000    0 0 0 1
G00618           CIRCULAR 0.800    0 0 0 1
G00619           CIRCULAR 0.800    0 0 0 1
G00620           CIRCULAR 0.800    0 0 0 1
G00621           CIRCULAR 0.800    0 0 0 1
G00622           CIRCULAR 0.800    0 0 0 1
G00623           CIRCULAR 0.800    0 0 0 1
G00624           CIRCULAR 0.800    0 0 0 1
G00625           CIRCULAR 1.000    0 0 0 1
G00626           CIRCULAR 0.800    0 0 0 1
G00627           CIRCULAR 0.800    0 0 0 1
G00628           CIRCULAR 0.800    0 0 0 1
G00629           CIRCULAR 0.800    0 0 0 1
G00630           CIRCULAR 0.800    0 0 0 1
G00631           CIRCULAR 0.800    0 0 0 1
G00632           CIRCULAR 0.800    0 0 0 1
G00633           CIRCULAR 0.800    0 0 0 1
G00634           CIRCULAR 1.000    0 0 0 1
G00635           CIRCULAR 0.800    0 0 0 1
G00636           CIRCULAR 0.800    0 0 0 1
G00637           CIRCULAR 1.000    0 0 0 1
G00638           CIRCULAR 0.800    0 0 0 1
G00639           CIRCULAR 1.000    0 0 0 1
G00640           CIRCULAR 1.000    0 0 0 1
G00641           CIRCULAR 1.000    0 0 0 1
G00642           CIRCULAR 1.000    0 0 0 1
G00643           CIRCULAR 0.800    0 0 0 1
G00644           CIRCULAR 0.800    0 0 0 1
G00645           CIRCULAR 0.800    0 0 0 1
G00646           CIRCULAR 1.000    0 0 0 1
G00647           CIRCULAR 0.800    0 0 0 1
G00648           CIRCULAR 0.800    0 0 0 1
G00649           CIRCULAR 0.800    0 0 0 1
G00650           CIRCULAR 0.800    0 0 0 1
G00651           CIRCULAR 0.800    0 0 0 1
G00652           CIRCULAR 1.000    0 0 0 1
G00653           CIRCULAR 0.800    0 0 0 1
G00654           CIRCULAR 0.800    0 0 0 1
G00655           CIRCULAR 1.000    0 0 0 1
G00656           CIRCULAR 0.800    0 0 0 1
G00657           CIRCULAR 0.800    0 0 0 1
G00658           CIRCULAR 0.800    0 0 0 1
G00659           CIRCULAR 0.800    0 0 0 1
G00660           CIRCULAR 0.800    0 0 0 1
G00661           CIRCULAR 0.800    0 0 0 1
G00662           CIRCULAR 1.000    0 0 0 1
G00663           CIRCULAR 0.800    0 0 0 1
G00664           CIRCULAR 0.800    0 0 0 1
G00665           CIRCULAR 0.800    0 0 0 1
G00666           CIRCULAR 0.800    0 0 0 1
G00667           CIRCULAR 0.800    0 0 0 1
G00668           CIRCULAR 0.800    0 0 0 1
G00669           CIRCULAR 0.800    0 0 0 1
G00670           CIRCULAR 0.800    0 0 0 1
G00671           CIRCULAR 0.800    0 0 0 1
G00672           CIRCULAR 0.800    0 0 0 1
G00673           CIRCULAR 0.800    0 0 0 1
G00674           CIRCULAR 0.800    0 0 0 1
G00675           CIRCULAR 0.800    0 0 0 1
G00676           CIRCULAR 0.800    0 0 0 1
G00677           CIRCULAR 0.800    0 0 0 1
G00678           CIRCULAR 0.800    0 0 0 1
G00679           CIRCULAR 0.800    0 0 0 1
G00680           CIRCULAR 0.800    0 0 0 1
G00681           CIRCULAR 0.800    0 0 0 1
G00682           CIRCULAR 1.000    0 0 0 1
G00683           CIRCULAR 1.000    0 0 0 1
G00684           CIRCULAR 0.800    0 0 0 1
G00685           CIRCULAR 0.800    0 0 0 1
G00686           CIRCULAR 0.800    0 0 0 1
G00687           CIRCULAR 0.800    0 0 0 1
G00688           CIRCULAR 0.800    0 0 0 1
G00689           CIRCULAR 0.800    0 0 0 1
G00690           CIRCULAR 1.000    0 0 0 1
G00691           CIRCULAR 1.000    0 0 0 1
G00692           CIRCULAR 1.200    0 0 0 1
G00693           CIRCULAR 1.200    0 0 0 1
G00694           CIRCULAR 0.800    0 0 0 1
G00695           CIRCULAR 1.500    0 0 0 1
G00696           CIRCULAR 0.800    0 0 0 1
G00697           CIRCULAR 0.800    0 0 0 1
G00698           CIRCULAR 1.200    0 0 0 1
G00699           CIRCULAR 0.800    0 0 0 1
G00700           CIRCULAR 1.000    0 0 0 1
G00701           CIRCULAR 0.800    0 0 0 1
G00702           CIRCULAR 1.000    0 0 0 1
G00703           CIRCULAR 0.800    0 0 0 1
G00704           CIRCULAR 0.800    0 0 0 1
G00705           CIRCULAR 0.800    0 0 0 1
G00706           CIRCULAR 0.800    0 0 0 1
G00707           CIRCULAR 0.800    0 0 0 1
G00708           CIRCULAR 0.800    0 0 0 1
G00709           CIRCULAR 0.800    0 0 0 1
G00710           CIRCULAR 1.000    0 0 0 1
G00711           CIRCULAR 1.200    0 0 0 1
G00712           CIRCULAR 0.800    0 0 0 1
G00713           CIRCULAR 0.800    0 0 0 1
G00714           CIRCULAR 0.800    0 0 0 1
G00715           CIRCULAR 0.800    0 0 0 1
G00716           CIRCULAR 0.800    0 0 0 1
G00717           CIRCULAR 0.800    0 0 0 1
G00718           CIRCULAR 0.800    0 0 0 1
G00719           CIRCULAR 0.800    0 0 0 1
G00720           CIRCULAR 0.800    0 0 0 1
G00721           CIRCULAR 0.800    0 0 0 1
G00722           CIRCULAR 1.000    0 0 0 1
G00723           CIRCULAR 0.800    0 0 0 1
G00724           CIRCULAR 0.800    0 0 0 1
G00725           CIRCULAR 1.200    0 0 0 1
G00726           CIRCULAR 1.200    0 0 0 1
G00727           CIRCULAR 0.800    0 0 0 1
G00728           CIRCULAR 0.800    0 0 0 1
G00729           CIRCULAR 0.800    0 0 0 1
G00730           CIRCULAR 0.800    0 0 0 1
G00731           CIRCULAR 0.800    0 0 0 1
G00732           CIRCULAR 0.800    0 0 0 1
G00733           CIRCULAR 0.800    0 0 0 1
G00734           CIRCULAR 0.800    0 0 0 1
G00735           CIRCULAR 0.800    0 0 0 1
G00736           CIRCULAR 0.800    0 0 0 1
G00737           CIRCULAR 0.800    0 0 0 1
G00738           CIRCULAR 0.800    0 0 0 1
G00739           CIRCULAR 0.800    0 0 0 1
G00740           CIRCULAR 1.000    0 0 0 1
G00741           CIRCULAR 1.200    0 0 0 1
G00742           CIRCULAR 1.200    0 0 0 1
G00743           CIRCULAR 0.800    0 0 0 1
G00744           CIRCULAR 0.800    0 0 0 1
G00745           CIRCULAR 1.000    0 0 0 1
G00746           CIRCULAR 0.800    0 0 0 1
G00747           CIRCULAR 0.800    0 0 0 1
G00748           CIRCULAR 1.000    0 0 0 1
G00749           CIRCULAR 1.000    0 0 0 1
G00750           CIRCULAR 0.800    0 0 0 1
G00751           CIRCULAR 0.800    0 0 0 1
G00752           CIRCULAR 0.800    0 0 0 1
G00753           CIRCULAR 0.800    0 0 0 1
G00754           CIRCULAR 0.800    0 0 0 1
G00755           CIRCULAR 1.000    0 0 0 1
G00756           CIRCULAR 0.800    0 0 0 1
G00757           CIRCULAR 0.800    0 0 0 1
G00758           CIRCULAR 0.800    0 0 0 1
G00759           CIRCULAR 0.800    0 0 0 1
G00760           CIRCULAR 0.800    0 0 0 1
G00761           CIRCULAR 0.800    0 0 0 1
G00762           CIRCULAR 1.000    0 0 0 1
G00763           CIRCULAR 0.800    0 0 0 1
G00764           CIRCULAR 0.800    0 0 0 1
G00765           CIRCULAR 0.800    0 0 0 1
G00766           CIRCULAR 0.800    0 0 0 1
G00767           CIRCULAR 0.800    0 0 0 1
G00768           CIRCULAR 0.800    0 0 0 1
G00769           CIRCULAR 0.800    0 0 0 1
G00770           CIRCULAR 0.800    0 0 0 1
G00771           CIRCULAR 0.800    0 0 0 1
G00772           CIRCULAR 1.000    0 0 0 1
G00773           CIRCULAR 0.800    0 0 0 1
G00774           CIRCULAR 1.000    0 0 0 1
G00775           CIRCULAR 0.800    0 0 0 1
G00776           CIRCULAR 1.000    0 0 0 1
G00777           CIRCULAR 0.800    0 0 0 1
G00778           CIRCULAR 0.800    0 0 0 1
G00779           CIRCULAR 0.800    0 0 0 1
G00780           CIRCULAR 0.800    0 0 0 1
G00781           CIRCULAR 1.000    0 0 0 1
G00782           CIRCULAR 0.800    0 0 0 1
G00783           CIRCULAR 0.800    0 0 0 1
G00784           CIRCULAR 0.800    0 0 0 1
G00785           CIRCULAR 0.800    0 0 0 1
G00786           CIRCULAR 1.200    0 0 0 1
G00787           CIRCULAR 0.800    0 0 0 1
G00788           CIRCULAR 0.800    0 0 0 1
G00789           CIRCULAR 0.800    0 0 0 1
G00790           CIRCULAR 0.800    0 0 0 1
G00791           CIRCULAR 0.800    0 0 0 1
G00792           CIRCULAR 0.800    0 0 0 1
G00793           CIRCULAR 0.800    0 0 0 1
G00794           CIRCULAR 0.800    0 0 0 1
G00795           CIRCULAR 0.800    0 0 0 1
G00796           CIRCULAR 1.200    0 0 0 1
G00797           CIRCULAR 1.000    0 0 0 1
G00798           CIRCULAR 1.000    0 0 0 1
G00799           CIRCULAR 1.000    0 0 0 1
G00800           CIRCULAR 0.800    0 0 0 1
G00801           CIRCULAR 1.000    0 0 0 1
G00802           CIRCULAR 0.800    0 0 0 1
G00803           CIRCULAR 0.800    0 0 0 1
G00804           CIRCULAR 0.800    0 0 0 1
G00805           CIRCULAR 1.200    0 0 0 1
G00806           CIRCULAR 0.800    0 0 0 1
G00807           CIRCULAR 0.800    0 0 0 1
G00808           CIRCULAR 1.000    0 0 0 1
G00809           CIRCULAR 0.800    0 0 0 1
G00810           CIRCULAR 1.000    0 0 0 1
G00811           CIRCULAR 0.800    0 0 0 1
G00812           CIRCULAR 0.800    0 0 0 1
G00813           CIRCULAR 0.800    0 0 0 1
G00814           CIRCULAR 0.800    0 0 0 1
G00815           CIRCULAR 0.800    0 0 0 1
G00816           CIRCULAR 0.800    0 0 0 1
G00817           CIRCULAR 0.800    0 0 0 1
G00818           CIRCULAR 0.800    0 0 0 1
G00819           CIRCULAR 0.800    0 0 0 1
G00820           CIRCULAR 1.000    0 0 0 1
G00821           CIRCULAR 0.800    0 0 0 1
G00822           CIRCULAR 0.800    0 0 0 1
G00823           CIRCULAR 0.800    0 0 0 1
G00824           CIRCULAR 0.800    0 0 0 1
G00825           CIRCULAR 0.800    0 0 0 1
G00826           CIRCULAR 1.000    0 0 0 1
G00827           CIRCULAR 0.800    0 0 0 1
G00828           CIRCULAR 0.800    0 0 0 1
G00829           CIRCULAR 1.000    0 0 0 1
G00830           CIRCULAR 1.000    0 0 0 1
G00831           CIRCULAR 0.800    0 0 0 1
G00832           CIRCULAR 0.800    0 0 0 1
G00833           CIRCULAR 0.800    0 0 0 1
G00834           CIRCULAR 0.800    0 0 0 1
G00835           CIRCULAR 1.000    0 0 0 1
G00836           CIRCULAR 1.000    0 0 0 1
G00837           CIRCULAR 1.000    0 0 0 1
G00838           CIRCULAR 0.800    0 0 0 1
G00839           CIRCULAR 0.800    0 0 0 1
G00840           CIRCULAR 0.800    0 0 0 1
G00841           CIRCULAR 0.800    0 0 0 1
G00842           CIRCULAR 1.000    0 0 0 1
G00843           CIRCULAR 0.800    0 0 0 1
G00844           CIRCULAR 1.200    0 0 0 1
G00845           CIRCULAR 0.800    0 0 0 1
G00846           CIRCULAR 0.800    0 0 0 1
G00847           CIRCULAR 0.800    0 0 0 1
G00848           CIRCULAR 0.800    0 0 0 1
G00849           CIRCULAR 0.800    0 0 0 1
G00850           CIRCULAR 0.800    0 0 0 1
G00851           CIRCULAR 1.000    0 0 0 1
G00852           CIRCULAR 0.800    0 0 0 1
G00853           CIRCULAR 0.800    0 0 0 1
G00854           CIRCULAR 0.800    0 0 0 1
G00855           CIRCULAR 0.800    0 0 0 1
G00856           CIRCULAR 0.800    0 0 0 1
G00857           CIRCULAR 0.800    0 0 0 1
G00858           CIRCULAR 0.800    0 0 0 1
G00859           CIRCULAR 0.800    0 0 0 1
G00860           CIRCULAR 0.800    0 0 0 1
G00861           CIRCULAR 0.800    0 0 0 1
G00862           CIRCULAR 0.800    0 0 0 1
G00863           CIRCULAR 0.800    0 0 0 1
G00864           CIRCULAR 0.800    0 0 0 1
G00865           CIRCULAR 0.800    0 0 0 1
G00866           CIRCULAR 0.800    0 0 0 1
G00867           CIRCULAR 0.800    0 0 0 1
G00868           CIRCULAR 0.800    0 0 0 1
G00869           CIRCULAR 0.800    0 0 0 1
G00870           CIRCULAR 0.800    0 0 0 1
G00871           CIRCULAR 0.800    0 0 0 1
G00872           CIRCULAR 0.800    0 0 0 1
G00873           CIRCULAR 1.000    0 0 0 1
G00874           CIRCULAR 0.800    0 0 0 1
G00875           CIRCULAR 1.000    0 0 0 1
G00876           CIRCULAR 0.800    0 0 0 1
G00877           CIRCULAR 0.800    0 0 0 1
G00878           CIRCULAR 0.800    0 0 0 1
G00879           CIRCULAR 0.800    0 0 0 1
G00880           CIRCULAR 0.800    0 0 0 1
G00881           CIRCULAR 0.800    0 0 0 1
G00882           CIRCULAR 0.800    0 0 0 1
G00883           CIRCULAR 1.000    0 0 0 1
G00884           CIRCULAR 1.000    0 0 0 1
G00885           CIRCULAR 1.000    0 0 0 1
G00886           CIRCULAR 0.800    0 0 0 1
G00887           CIRCULAR 0.800    0 0 0 1
G00888           CIRCULAR 1.000    0 0 0 1
G00889           CIRCULAR 0.800    0 0 0 1
G00890           CIRCULAR 0.800    0 0 0 1
G00891           CIRCULAR 0.800    0 0 0 1
G00892           CIRCULAR 0.800    0 0 0 1
G00893           CIRCULAR 0.800    0 0 0 1
G00894           CIRCULAR 0.800    0 0 0 1
G00895           CIRCULAR 0.800    0 0 0 1
G00896           CIRCULAR 1.200    0 0 0 1
G00897           CIRCULAR 0.800    0 0 0 1
G00898           CIRCULAR 0.800    0 0 0 1
G00899           CIRCULAR 0.800    0 0 0 1
G00900           CIRCULAR 0.800    0 0 0 1
G00901           CIRCULAR 0.800    0 0 0 1
G00902           CIRCULAR 0.800    0 0 0 1
G00903           CIRCULAR 0.800    0 0 0 1
G00904           CIRCULAR 0.800    0 0 0 1
G00905           CIRCULAR 0.800    0 0 0 1
G00906           CIRCULAR 0.800    0 0 0 1
G00907           CIRCULAR 0.800    0 0 0 1
G00908           CIRCULAR 1.000    0 0 0 1
G00909           CIRCULAR 1.000    0 0 0 1
G00910           CIRCULAR 0.800    0 0 0 1
G00911           CIRCULAR 0.800    0 0 0 1
G00912           CIRCULAR 0.800    0 0 0 1
G00913           CIRCULAR 0.800    0 0 0 1
G00914           CIRCULAR 0.800    0 0 0 1
G00915           CIRCULAR 0.800    0 0 0 1
G00916           CIRCULAR 0.800    0 0 0 1
G00917           CIRCULAR 0.800    0 0 0 1
G00918           CIRCULAR 0.800    0 0 0 1
G00919           CIRCULAR 0.800    0 0 0 1
G00920           CIRCULAR 0.800    0 0 0 1
G00921           CIRCULAR 0.800    0 0 0 1
G00922           CIRCULAR 0.800    0 0 0 1
G00923           CIRCULAR 0.800    0 0 0 1
G00924           CIRCULAR 0.800    0 0 0 1
G00925           CIRCULAR 0.800    0 0 0 1
G00926           CIRCULAR 0.800    0 0 0 1
G00927           CIRCULAR 0.800    0 0 0 1
G00928           CIRCULAR 0.800    0 0 0 1
G00929           CIRCULAR 0.800    0 0 0 1
G00930           CIRCULAR 0.800    0 0 0 1
G00931           CIRCULAR 1.000    0 0 0 1
G00932           CIRCULAR 0.800    0 0 0 1
G00933           CIRCULAR 0.800    0 0 0 1
G00934           CIRCULAR 1.000    0 0 0 1
G00935           CIRCULAR 0.800    0 0 0 1
G00936           CIRCULAR 0.800    0 0 0 1
G00937           CIRCULAR 0.800    0 0 0 1
G00938           CIRCULAR 0.800    0 0 0 1
G00939           CIRCULAR 0.800    0 0 0 1
G00940           CIRCULAR 0.800    0 0 0 1
G00941           CIRCULAR 0.800    0 0 0 1
G00942           CIRCULAR 0.800    0 0 0 1
G00943           CIRCULAR 0.800    0 0 0 1
G00944           CIRCULAR 0.800    0 0 0 1
G00945           CIRCULAR 1.000    0 0 0 1
G00946           CIRCULAR 0.800    0 0 0 1
G00947           CIRCULAR 0.800    0 0 0 1
G00948           CIRCULAR 0.800    0 0 0 1
G00949           CIRCULAR 0.800    0 0 0 1
G00950           CIRCULAR 0.800    0 0 0 1
G00951           CIRCULAR 0.800    0 0 0 1
G00952           CIRCULAR 0.800    0 0 0 1
G00953           CIRCULAR 0.800    0 0 0 1
G00954           CIRCULAR 0.800    0 0 0 1
G00955           CIRCULAR 0.800    0 0 0 1
G00956           CIRCULAR 0.800    0 0 0 1
G00957           CIRCULAR 0.800    0 0 0 1
G00958           CIRCULAR 0.800    0 0 0 1
G00959           CIRCULAR 0.800    0 0 0 1
G00960           CIRCULAR 0.800    0 0 0 1
G00961           CIRCULAR 0.800    0 0 0 1
G00962           CIRCULAR 0.800    0 0 0 1
G00963           CIRCULAR 0.800    0 0 0 1
G00964           CIRCULAR 0.800    0 0 0 1
G00965           CIRCULAR 1.000    0 0 0 1
G00966           CIRCULAR 0.800    0 0 0 1
G00967           CIRCULAR 0.800    0 0 0 1
G00968           CIRCULAR 0.800    0 0 0 1
G00969           CIRCULAR 0.800    0 0 0 1
G00970           CIRCULAR 0.800    0 0 0 1
G00971           CIRCULAR 0.800    0 0 0 1
G00972           CIRCULAR 0.800    0 0 0 1
G00973           CIRCULAR 0.800    0 0 0 1
G00974           CIRCULAR 0.800    0 0 0 1
G00975           CIRCULAR 1.000    0 0 0 1
G00976           CIRCULAR 1.000    0 0 0 1
G00977           CIRCULAR 0.800    0 0 0 1
G00978           CIRCULAR 0.800    0 0 0 1
G00979           CIRCULAR 0.800    0 0 0 1
G00980           CIRCULAR 0.800    0 0 0 1
G00981           CIRCULAR 1.000    0 0 0 1
G00982           CIRCULAR 0.800    0 0 0 1
G00983           CIRCULAR 1.000    0 0 0 1
G00984           CIRCULAR 1.000    0 0 0 1
G00985           CIRCULAR 1.000    0 0 0 1
G00986           CIRCULAR 0.800    0 0 0 1
G00987           CIRCULAR 0.800    0 0 0 1
G00988           CIRCULAR 0.800    0 0 0 1
G00989           CIRCULAR 0.800    0 0 0 1
G00990           CIRCULAR 0.800    0 0 0 1
G00991           CIRCULAR 1.000    0 0 0 1
G00992           CIRCULAR 0.800    0 0 0 1
G00993           CIRCULAR 1.200    0 0 0 1
G00994           CIRCULAR 0.800    0 0 0 1
G00995           CIRCULAR 1.000    0 0 0 1
G00996           CIRCULAR 0.800    0 0 0 1
G00997           CIRCULAR 0.800    0 0 0 1
G00998           CIRCULAR 0.800    0 0 0 1
G00999           CIRCULAR 1.000    0 0 0 1
G01000           CIRCULAR 1.000    0 0 0 1
G01001           CIRCULAR 0.800    0 0 0 1
G01002           CIRCULAR 1.000    0 0 0 1
G01003           CIRCULAR 0.800    0 0 0 1
G01004           CIRCULAR 0.800    0 0 0 1
G01005           CIRCULAR 0.800    0 0 0 1
G01006           CIRCULAR 0.800    0 0 0 1
G01007           CIRCULAR 0.800    0 0 0 1
G01008           CIRCULAR 0.800    0 0 0 1
G01009           CIRCULAR 0.800    0 0 0 1
G01010           CIRCULAR 1.000    0 0 0 1
G01011           CIRCULAR 0.800    0 0 0 1
G01012           CIRCULAR 0.800    0 0 0 1
G01013           CIRCULAR 0.800    0 0 0 1
G01014           CIRCULAR 0.800    0 0 0 1
G01015           CIRCULAR 0.800    0 0 0 1
G01016           CIRCULAR 0.800    0 0 0 1
G01017           CIRCULAR 0.800    0 0 0 1
G01018           CIRCULAR 1.000    0 0 0 1
G01019           CIRCULAR 1.000    0 0 0 1
G01020           CIRCULAR 0.800    0 0 0 1
G01021           CIRCULAR 0.800    0 0 0 1
G01022           CIRCULAR 0.800    0 0 0 1
G01023           CIRCULAR 0.800    0 0 0 1
G01024           CIRCULAR 0.800    0 0 0 1
G01025           CIRCULAR 0.800    0 0 0 1
G01026           CIRCULAR 0.800    0 0 0 1
G01027           CIRCULAR 0.800    0 0 0 1
G01028           CIRCULAR 1.200    0 0 0 1
G01029           CIRCULAR 0.800    0 0 0 1
G01030           CIRCULAR 0.800    0 0 0 1
G01031           CIRCULAR 0.800    0 0 0 1
G01032           CIRCULAR 0.800    0 0 0 1
G01033           CIRCULAR 0.800    0 0 0 1
G01034           CIRCULAR 1.200    0 0 0 1
G01035           CIRCULAR 1.200    0 0 0 1
G01036           CIRCULAR 1.200    0 0 0 1
G01037           CIRCULAR 1.200    0 0 0 1
G01038           CIRCULAR 1.000    0 0 0 1
G01039           CIRCULAR 0.800    0 0 0 1
G01040           CIRCULAR 0.800    0 0 0 1
G01041           CIRCULAR 1.000    0 0 0 1
G01042           CIRCULAR 0.800    0 0 0 1
G01043           CIRCULAR 0.800    0 0 0 1
G01044           CIRCULAR 1.000    0 0 0 1
G01045           CIRCULAR 0.800    0 0 0 1
G01046           CIRCULAR 0.800    0 0 0 1
G01047           CIRCULAR 1.000    0 0 0 1
G01048           CIRCULAR 1.000    0 0 0 1
G01049           CIRCULAR 0.800    0 0 0 1
G01050           CIRCULAR 0.800    0 0 0 1
G01051           CIRCULAR 1.000    0 0 0 1
G01052           CIRCULAR 0.800    0 0 0 1
G01053           CIRCULAR 1.000    0 0 0 1
G01054           CIRCULAR 0.800    0 0 0 1
G01055           CIRCULAR 0.800    0 0 0 1
G01056           CIRCULAR 0.800    0 0 0 1
G01057           CIRCULAR 0.800    0 0 0 1
G01058           CIRCULAR 0.800    0 0 0 1
G01059           CIRCULAR 1.200    0 0 0 1
G01060           CIRCULAR 0.800    0 0 0 1
G01061           CIRCULAR 0.800    0 0 0 1
G01062           CIRCULAR 0.800    0 0 0 1
G01063           CIRCULAR 0.800    0 0 0 1
G01064           CIRCULAR 0.800    0 0 0 1
G01065           CIRCULAR 0.800    0 0 0 1
G01066           CIRCULAR 0.800    0 0 0 1
G01067           CIRCULAR 0.800    0 0 0 1
G01068           CIRCULAR 0.800    0 0 0 1
G01069           CIRCULAR 0.800    0 0 0 1
G01070           CIRCULAR 0.800    0 0 0 1
G01071           CIRCULAR 0.800    0 0 0 1
G01072           CIRCULAR 0.800    0 0 0 1
G01073           CIRCULAR 0.800    0 0 0 1
G01074           CIRCULAR 1.000    0 0 0 1
G01075           CIRCULAR 1.000    0 0 0 1
G01076           CIRCULAR 0.800    0 0 0 1
G01077           CIRCULAR 0.800    0 0 0 1
G01078           CIRCULAR 0.800    0 0 0 1
G01079           CIRCULAR 1.200    0 0 0 1
G01080           CIRCULAR 1.000    0 0 0 1
G01081           CIRCULAR 1.200    0 0 0 1
G01082           CIRCULAR 0.800    0 0 0 1
G01083           CIRCULAR 0.800    0 0 0 1
G01084           CIRCULAR 0.800    0 0 0 1
G01085           CIRCULAR 0.800    0 0 0 1
G01086           CIRCULAR 0.800    0 0 0 1
G01087           CIRCULAR 0.800    0 0 0 1
G01088           CIRCULAR 0.800    0 0 0 1
G01089           CIRCULAR 0.800    0 0 0 1
G01090           CIRCULAR 0.800    0 0 0 1
G01091           CIRCULAR 0.800    0 0 0 1
G01092           CIRCULAR 0.800    0 0 0 1
G01093           CIRCULAR 1.000    0 0 0 1
G01094           CIRCULAR 0.800    0 0 0 1
G01095           CIRCULAR 0.800    0 0 0 1
G01096           CIRCULAR 0.800    0 0 0 1
G01097           CIRCULAR 0.800    0 0 0 1
G01098           CIRCULAR 1.000    0 0 0 1
G01099           CIRCULAR 0.800    0 0 0 1
G01100           CIRCULAR 0.800    0 0 0 1
G01101           CIRCULAR 0.800    0 0 0 1
G01102           CIRCULAR 0.800    0 0 0 1
G01103           CIRCULAR 0.800    0 0 0 1
G01104           CIRCULAR 0.800    0 0 0 1
G01105           CIRCULAR 0.800    0 0 0 1
G01106           CIRCULAR 0.800    0 0 0 1
G01107           CIRCULAR 0.800    0 0 0 1
G01108           CIRCULAR 0.800    0 0 0 1
G01109           CIRCULAR 0.800    0 0 0 1
G01110           CIRCULAR 0.800    0 0 0 1
G01111           CIRCULAR 0.800    0 0 0 1
G01112           CIRCULAR 0.800    0 0 0 1
G01113           CIRCULAR 0.800    0 0 0 1
G01114           CIRCULAR 0.800    0 0 0 1
G01115           CIRCULAR 1.200    0 0 0 1
G01116           CIRCULAR 1.200    0 0 0 1
G01117           CIRCULAR 1.200    0 0 0 1
G01118           CIRCULAR 0.800    0 0 0 1
G01119           CIRCULAR 0.800    0 0 0 1
G01120           CIRCULAR 0.800    0 0 0 1
G01121           CIRCULAR 0.800    0 0 0 1
G01122           CIRCULAR 0.800    0 0 0 1
G01123           CIRCULAR 0.800    0 0 0 1
G01124           CIRCULAR 0.800    0 0 0 1
G01125           CIRCULAR 0.800    0 0 0 1
G01126           CIRCULAR 0.800    0 0 0 1
G01127           CIRCULAR 0.800    0 0 0 1
G01128           CIRCULAR 0.800    0 0 0 1
G01129           CIRCULAR 0.800    0 0 0 1
G01130           CIRCULAR 1.000    0 0 0 1
G01131           CIRCULAR 0.800    0 0 0 1
G01132           CIRCULAR 1.000    0 0 0 1
G01133           CIRCULAR 0.800    0 0 0 1
G01134           CIRCULAR 0.800    0 0 0 1
G01135           CIRCULAR 0.800    0 0 0 1
G01136           CIRCULAR 0.800    0 0 0 1
G01137           CIRCULAR 0.800    0 0 0 1
G01138           CIRCULAR 0.800    0 0 0 1
G01139           CIRCULAR 0.800    0 0 0 1
G01140           CIRCULAR 0.800    0 0 0 1
G01141           CIRCULAR 0.800    0 0 0 1
G01142           CIRCULAR 0.800    0 0 0 1
G01143           CIRCULAR 0.800    0 0 0 1
G01144           CIRCULAR 0.800    0 0 0 1
G01145           CIRCULAR 0.800    0 0 0 1
G01146           CIRCULAR 0.800    0 0 0 1
G01147           CIRCULAR 0.800    0 0 0 1
G01148           CIRCULAR 0.800    0 0 0 1
G01149           CIRCULAR 1.000    0 0 0 1
G01150           CIRCULAR 1.000    0 0 0 1
G01151           CIRCULAR 0.800    0 0 0 1
G01152           CIRCULAR 0.800    0 0 0 1
G01153           CIRCULAR 0.800    0 0 0 1
G01154           CIRCULAR 0.800    0 0 0 1
G01155           CIRCULAR 0.800    0 0 0 1
G01156           CIRCULAR 0.800    0 0 0 1
G01157           CIRCULAR 0.800    0 0 0 1
G01158           CIRCULAR 1.000    0 0 0 1
G01159           CIRCULAR 0.800    0 0 0 1
G01160           CIRCULAR 1.000    0 0 0 1
G01161           CIRCULAR 0.800    0 0 0 1
G01162           CIRCULAR 0.800    0 0 0 1
G01163           CIRCULAR 1.200    0 0 0 1
G01164           CIRCULAR 0.800    0 0 0 1
G01165           CIRCULAR 0.800    0 0 0 1
G01166           CIRCULAR 0.800    0 0 0 1
G01167           CIRCULAR 1.000    0 0 0 1
G01168           CIRCULAR 1.000    0 0 0 1
G01169           CIRCULAR 1.000    0 0 0 1
G01170           CIRCULAR 0.800    0 0 0 1
G01171           CIRCULAR 0.800    0 0 0 1
G01172           CIRCULAR 1.000    0 0 0 1
G01173           CIRCULAR 0.800    0 0 0 1
G01174           CIRCULAR 0.800    0 0 0 1
G01175           CIRCULAR 0.800    0 0 0 1
G01176           CIRCULAR 0.800    0 0 0 1
G01177           CIRCULAR 0.800    0 0 0 1
G01178           CIRCULAR 0.800    0 0 0 1
G01179           CIRCULAR 0.800    0 0 0 1
G01180           CIRCULAR 0.800    0 0 0 1
G01181           CIRCULAR 0.800    0 0 0 1
G01182           CIRCULAR 0.800    0 0 0 1
G01183           CIRCULAR 0.800    0 0 0 1
G01184           CIRCULAR 0.800    0 0 0 1
G01185           CIRCULAR 0.800    0 0 0 1
G01186           CIRCULAR 0.800    0 0 0 1
G01187           CIRCULAR 0.800    0 0 0 1
G01188           CIRCULAR 0.800    0 0 0 1
G01189           CIRCULAR 0.800    0 0 0 1
G01190           CIRCULAR 0.800    0 0 0 1
G01191           CIRCULAR 0.800    0 0 0 1
G01192           CIRCULAR 0.800    0 0 0 1
G01193           CIRCULAR 0.800    0 0 0 1
G01194           CIRCULAR 1.000    0 0 0 1
G01195           CIRCULAR 1.000    0 0 0 1
G01196           CIRCULAR 0.800    0 0 0 1
G01197           CIRCULAR 0.800    0 0 0 1
G01198           CIRCULAR 0.800    0 0 0 1
G01199           CIRCULAR 0.800    0 0 0 1
G01200           CIRCULAR 0.800    0 0 0 1
G01201           CIRCULAR 0.800    0 0 0 1
G01202           CIRCULAR 0.800    0 0 0 1
G01203           CIRCULAR 0.800    0 0 0 1
G01204           CIRCULAR 0.800    0 0 0 1
G01205           CIRCULAR 1.000    0 0 0 1
G01206           CIRCULAR 1.000    0 0 0 1
G01207           CIRCULAR 0.800    0 0 0 1
G01208           CIRCULAR 1.000    0 0 0 1
G01209           CIRCULAR 0.800    0 0 0 1
G01210           CIRCULAR 0.800    0 0 0 1
G01211           CIRCULAR 0.800    0 0 0 1
G01212           CIRCULAR 0.800    0 0 0 1
G01213           CIRCULAR 0.800    0 0 0 1
G01214           CIRCULAR 0.800    0 0 0 1
G01215           CIRCULAR 0.800    0 0 0 1
G01216           CIRCULAR 0.800    0 0 0 1
G01217           CIRCULAR 0.800    0 0 0 1
G01218           CIRCULAR 0.800    0 0 0 1
G01219           CIRCULAR 0.800    0 0 0 1
G01220           CIRCULAR 0.800    0 0 0 1
G01221           CIRCULAR 1.200    0 0 0 1
G01222           CIRCULAR 1.000    0 0 0 1
G01223           CIRCULAR 0.800    0 0 0 1
G01224           CIRCULAR 0.800    0 0 0 1
G01225           CIRCULAR 0.800    0 0 0 1
G01226           CIRCULAR 0.800    0 0 0 1
G01227           CIRCULAR 0.800    0 0 0 1
G01228           CIRCULAR 0.800    0 0 0 1
G01229           CIRCULAR 0.800    0 0 0 1
G01230           CIRCULAR 0.800    0 0 0 1
G01231           CIRCULAR 0.800    0 0 0 1
G01232           CIRCULAR 0.800    0 0 0 1
G01233           CIRCULAR 0.800    0 0 0 1
G01234           CIRCULAR 0.800    0 0 0 1
G01235           CIRCULAR 0.800    0 0 0 1
G01236           CIRCULAR 1.000    0 0 0 1
G01237           CIRCULAR 0.800    0 0 0 1
G01238           CIRCULAR 0.800    0 0 0 1
G01239           CIRCULAR 0.800    0 0 0 1
G01240           CIRCULAR 0.800    0 0 0 1
G01241           CIRCULAR 0.800    0 0 0 1
G01242           CIRCULAR 0.800    0 0 0 1
G01243           CIRCULAR 0.800    0 0 0 1
G01244           CIRCULAR 0.800    0 0 0 1
G01245           CIRCULAR 1.000    0 0 0 1
G01246           CIRCULAR 1.000    0 0 0 1
G01247           CIRCULAR 0.800    0 0 0 1
G01248           CIRCULAR 1.000    0 0 0 1
G01249           CIRCULAR 0.800    0 0 0 1
G01250           CIRCULAR 0.800    0 0 0 1
G01251           CIRCULAR 0.800    0 0 0 1
G01252           CIRCULAR 0.800    0 0 0 1
G01253           CIRCULAR 0.800    0 0 0 1
G01254           CIRCULAR 0.800    0 0 0 1
G01255           CIRCULAR 0.800    0 0 0 1
G01256           CIRCULAR 1.000    0 0 0 1
G01257           CIRCULAR 1.000    0 0 0 1
G01258           CIRCULAR 1.000    0 0 0 1
G01259           CIRCULAR 1.000    0 0 0 1
G01260           CIRCULAR 0.800    0 0 0 1
G01261           CIRCULAR 0.800    0 0 0 1
G01262           CIRCULAR 0.800    0 0 0 1
G01263           CIRCULAR 0.800    0 0 0 1
G01264           CIRCULAR 0.800    0 0 0 1
G01265           CIRCULAR 0.800    0 0 0 1
G01266           CIRCULAR 0.800    0 0 0 1
G01267           CIRCULAR 1.000    0 0 0 1
G01268           CIRCULAR 0.800    0 0 0 1
G01269           CIRCULAR 0.800    0 0 0 1
G01270           CIRCULAR 0.800    0 0 0 1
G01271           CIRCULAR 0.800    0 0 0 1
G01272           CIRCULAR 0.800    0 0 0 1
G01273           CIRCULAR 0.800    0 0 0 1
G01274           CIRCULAR 1.000    0 0 0 1
G01275           CIRCULAR 1.000    0 0 0 1
G01276           CIRCULAR 0.800    0 0 0 1
G01277           CIRCULAR 0.800    0 0 0 1
G01278           CIRCULAR 0.800    0 0 0 1
G01279           CIRCULAR 0.800    0 0 0 1
G01280           CIRCULAR 0.800    0 0 0 1
G01281           CIRCULAR 0.800    0 0 0 1
G01282           CIRCULAR 0.800    0 0 0 1
G01283           CIRCULAR 1.200    0 0 0 1
G01284           CIRCULAR 0.800    0 0 0 1
G01285           CIRCULAR 0.800    0 0 0 1
G01286           CIRCULAR 0.800    0 0 0 1
G01287           CIRCULAR 0.800    0 0 0 1
G01288           CIRCULAR 0.800    0 0 0 1
G01289           CIRCULAR 0.800    0 0 0 1
G01290           CIRCULAR 0.800    0 0 0 1
G01291           CIRCULAR 0.800    0 0 0 1
G01292           CIRCULAR 0.800    0 0 0 1
G01293           CIRCULAR 0.800    0 0 0 1
G01294           CIRCULAR 1.200    0 0 0 1
G01295           CIRCULAR 1.200    0 0 0 1
G01296           CIRCULAR 0.800    0 0 0 1
G01297           CIRCULAR 0.800    0 0 0 1
G01298           CIRCULAR 0.800    0 0 0 1
G01299           CIRCULAR 0.800    0 0 0 1
G01300           CIRCULAR 0.800    0 0 0 1
G01301           CIRCULAR 0.800    0 0 0 1
G01302           CIRCULAR 0.800    0 0 0 1
G01303           CIRCULAR 0.800    0 0 0 1
G01304           CIRCULAR 0.800    0 0 0 1
G01305           CIRCULAR 0.800    0 0 0 1
G01306           CIRCULAR 0.800    0 0 0 1
G01307           CIRCULAR 0.800    0 0 0 1
G01308           CIRCULAR 1.000    0 0 0 1
G01309           CIRCULAR 0.800    0 0 0 1
G01310           CIRCULAR 1.000    0 0 0 1
G01311           CIRCULAR 0.800    0 0 0 1
G01312           CIRCULAR 0.800    0 0 0 1
G01313           CIRCULAR 0.800    0 0 0 1
G01314           CIRCULAR 1.000    0 0 0 1
G01315           CIRCULAR 0.800    0 0 0 1
G01316           CIRCULAR 0.800    0 0 0 1
G01317           CIRCULAR 0.800    0 0 0 1
G01318           CIRCULAR 0.800    0 0 0 1
G01319           CIRCULAR 0.800    0 0 0 1
G01320           CIRCULAR 0.800    0 0 0 1
G01321           CIRCULAR 0.800    0 0 0 1
G01322           CIRCULAR 0.800    0 0 0 1
G01323           CIRCULAR 0.800    0 0 0 1
G01324           CIRCULAR 0.800    0 0 0 1
G01325           CIRCULAR 1.000    0 0 0 1
G01326           CIRCULAR 1.000    0 0 0 1
G01327           CIRCULAR 0.800    0 0 0 1
G01328           CIRCULAR 0.800    0 0 0 1
G01329           CIRCULAR 0.800    0 0 0 1
G01330           CIRCULAR 1.000    0 0 0 1
G01331           CIRCULAR 1.000    0 0 0 1
G01332           CIRCULAR 0.800    0 0 0 1
G01333           CIRCULAR 0.800    0 0 0 1
G01334           CIRCULAR 0.800    0 0 0 1
G01335           CIRCULAR 0.800    0 0 0 1
G01336           CIRCULAR 0.800    0 0 0 1
G01337           CIRCULAR 0.800    0 0 0 1
G01338           CIRCULAR 0.800    0 0 0 1
G01339           CIRCULAR 0.800    0 0 0 1
G01340           CIRCULAR 1.000    0 0 0 1
G01341           CIRCULAR 0.800    0 0 0 1
G01342           CIRCULAR 0.800    0 0 0 1
G01343           CIRCULAR 0.800    0 0 0 1
G01344           CIRCULAR 0.800    0 0 0 1
G01345           CIRCULAR 0.800    0 0 0 1
G01346           CIRCULAR 0.800    0 0 0 1
G01347           CIRCULAR 0.800    0 0 0 1
G01348           CIRCULAR 0.800    0 0 0 1
G01349           CIRCULAR 0.800    0 0 0 1
G01350           CIRCULAR 0.800    0 0 0 1
G01351           CIRCULAR 0.800    0 0 0 1
G01352           CIRCULAR 0.800    0 0 0 1
G01353           CIRCULAR 1.000    0 0 0 1
G01354           CIRCULAR 1.200    0 0 0 1
G01355           CIRCULAR 0.800    0 0 0 1
G01356           CIRCULAR 0.800    0 0 0 1
G01357           CIRCULAR 0.800    0 0 0 1
G01358           CIRCULAR 0.800    0 0 0 1
G01359           CIRCULAR 0.800    0 0 0 1
G01360           CIRCULAR 0.800    0 0 0 1
G01361           CIRCULAR 0.800    0 0 0 1
G01362           CIRCULAR 0.800    0 0 0 1
G01363           CIRCULAR 0.800    0 0 0 1
G01364           CIRCULAR 0.800    0 0 0 1
G01365           CIRCULAR 1.000    0 0 0 1
G01366           CIRCULAR 1.000    0 0 0 1
G01367           CIRCULAR 0.800    0 0 0 1
G01368           CIRCULAR 1.200    0 0 0 1
G01369           CIRCULAR 1.200    0 0 0 1
G01370           CIRCULAR 0.800    0 0 0 1
G01371           CIRCULAR 0.800    0 0 0 1
G01372           CIRCULAR 0.800    0 0 0 1
G01373           CIRCULAR 0.800    0 0 0 1
G01374           CIRCULAR 0.800    0 0 0 1
G01375           CIRCULAR 0.800    0 0 0 1
G01376           CIRCULAR 0.800    0 0 0 1
G01377           CIRCULAR 0.800    0 0 0 1
G01378           CIRCULAR 0.800    0 0 0 1
G01379           CIRCULAR 0.800    0 0 0 1
G01380           CIRCULAR 0.800    0 0 0 1
G01381           CIRCULAR 0.800    0 0 0 1
G01382           CIRCULAR 0.800    0 0 0 1
G01383           CIRCULAR 1.000    0 0 0 1
G01384           CIRCULAR 1.000    0 0 0 1
G01385           CIRCULAR 1.200    0 0 0 1
G01386           CIRCULAR 0.800    0 0 0 1
G01387           CIRCULAR 0.800    0 0 0 1
G01388           CIRCULAR 0.800    0 0 0 1
G01389           CIRCULAR 0.800    0 0 0 1
G01390           CIRCULAR 0.800    0 0 0 1
G01391           CIRCULAR 0.800    0 0 0 1
G01392           CIRCULAR 0.800    0 0 0 1
G01393           CIRCULAR 0.800    0 0 0 1
G01394           CIRCULAR 0.800    0 0 0 1
G01395           CIRCULAR 0.800    0 0 0 1
G01396           CIRCULAR 0.800    0 0 0 1
G01397           CIRCULAR 1.000    0 0 0 1
G01398           CIRCULAR 0.800    0 0 0 1
G01399           CIRCULAR 0.800    0 0 0 1
G01400           CIRCULAR 0.800    0 0 0 1
G01401           CIRCULAR 1.000    0 0 0 1
G01402           CIRCULAR 0.800    0 0 0 1
G01403           CIRCULAR 0.800    0 0 0 1
G01404           CIRCULAR 0.800    0 0 0 1
G01405           CIRCULAR 0.800    0 0 0 1
G01406           CIRCULAR 0.800    0 0 0 1
G01407           CIRCULAR 0.800    0 0 0 1
G01408           CIRCULAR 0.800    0 0 0 1
G01409           CIRCULAR 1.000    0 0 0 1
G01410           CIRCULAR 0.800    0 0 0 1
G01411           CIRCULAR 0.800    0 0 0 1
G01412           CIRCULAR 0.800    0 0 0 1
G01413           CIRCULAR 0.800    0 0 0 1
G01414           CIRCULAR 0.800    0 0 0 1
G01415           CIRCULAR 0.800    0 0 0 1
G01416           CIRCULAR 0.800    0 0 0 1
G01417           CIRCULAR 0.800    0 0 0 1
G01418           CIRCULAR 0.800    0 0 0 1
G01419           CIRCULAR 0.800    0 0 0 1
G01420           CIRCULAR 0.800    0 0 0 1
G01421           CIRCULAR 0.800    0 0 0 1
G01422           CIRCULAR 1.000    0 0 0 1
G01423           CIRCULAR 0.800    0 0 0 1
G01424           CIRCULAR 0.800    0 0 0 1
G01425           CIRCULAR 0.800    0 0 0 1
G01426           CIRCULAR 0.800    0 0 0 1
G01427           CIRCULAR 1.000    0 0 0 1
G01428           CIRCULAR 1.200    0 0 0 1
G01429           CIRCULAR 0.800    0 0 0 1
G01430           CIRCULAR 1.000    0 0 0 1
G01431           CIRCULAR 1.000    0 0 0 1
G01432           CIRCULAR 1.000    0 0 0 1
G01433           CIRCULAR 0.800    0 0 0 1
G01434           CIRCULAR 1.000    0 0 0 1
G01435           CIRCULAR 0.800    0 0 0 1
G01436           CIRCULAR 0.800    0 0 0 1
G01437           CIRCULAR 0.800    0 0 0 1
G01438           CIRCULAR 0.800    0 0 0 1
G01439           CIRCULAR 0.800    0 0 0 1
G01440           CIRCULAR 0.800    0 0 0 1
G01441           CIRCULAR 0.800    0 0 0 1
G01442           CIRCULAR 0.800    0 0 0 1
G01443           CIRCULAR 0.800    0 0 0 1
G01444           CIRCULAR 0.800    0 0 0 1
G01445           CIRCULAR 0.800    0 0 0 1
G01446           CIRCULAR 0.800    0 0 0 1
G01447           CIRCULAR 0.800    0 0 0 1
G01448           CIRCULAR 0.800    0 0 0 1
G01449           CIRCULAR 0.800    0 0 0 1
G01450           CIRCULAR 0.800    0 0 0 1
G01451           CIRCULAR 1.000    0 0 0 1
G01452           CIRCULAR 0.800    0 0 0 1
G01453           CIRCULAR 0.800    0 0 0 1
G01454           CIRCULAR 1.000    0 0 0 1
G01455           CIRCULAR 0.800    0 0 0 1
G01456           CIRCULAR 1.000    0 0 0 1
G01457           CIRCULAR 1.000    0 0 0 1
G01458           CIRCULAR 0.800    0 0 0 1
G01459           CIRCULAR 0.800    0 0 0 1
G01460           CIRCULAR 0.800    0 0 0 1
G01461           CIRCULAR 0.800    0 0 0 1
G01462           CIRCULAR 0.800    0 0 0 1
G01463           CIRCULAR 0.800    0 0 0 1
G01464           CIRCULAR 0.800    0 0 0 1
G01465           CIRCULAR 0.800    0 0 0 1
G01466           CIRCULAR 0.800    0 0 0 1
G01467           CIRCULAR 0.800    0 0 0 1
G01468           CIRCULAR 0.800    0 0 0 1
G01469           CIRCULAR 0.800    0 0 0 1
G01470           CIRCULAR 0.800    0 0 0 1
G01471           CIRCULAR 0.800    0 0 0 1
G01472           CIRCULAR 0.800    0 0 0 1
G01473           CIRCULAR 0.800    0 0 0 1
G01474           CIRCULAR 0.800    0 0 0 1
G01475           CIRCULAR 0.800    0 0 0 1
G01476           CIRCULAR 0.800    0 0 0 1
G01477           CIRCULAR 1.200    0 0 0 1
G01478           CIRCULAR 1.000    0 0 0 1
G01479           CIRCULAR 0.800    0 0 0 1
G01480           CIRCULAR 0.800    0 0 0 1
G01481           CIRCULAR 0.800    0 0 0 1
G01482           CIRCULAR 0.800    0 0 0 1
G01483           CIRCULAR 0.800    0 0 0 1
G01484           CIRCULAR 0.800    0 0 0 1
G01485           CIRCULAR 0.800    0 0 0 1
G01486           CIRCULAR 0.800    0 0 0 1
G01487           CIRCULAR 0.800    0 0 0 1
G01488           CIRCULAR 1.000    0 0 0 1
G01489           CIRCULAR 0.800    0 0 0 1
G01490           CIRCULAR 1.000    0 0 0 1
G01491           CIRCULAR 0.800    0 0 0 1
G01492           CIRCULAR 1.000    0 0 0 1
G01493           CIRCULAR 0.800    0 0 0 1
G01494           CIRCULAR 0.800    0 0 0 1
G01495           CIRCULAR 0.800    0 0 0 1
G01496           CIRCULAR 0.800    0 0 0 1
G01497           CIRCULAR 0.800    0 0 0 1
G01498           CIRCULAR 0.800    0 0 0 1
G01499           CIRCULAR 0.800    0 0 0 1
G01500           CIRCULAR 0.800    0 0 0 1
G01501           CIRCULAR 0.800    0 0 0 1
G01502           CIRCULAR 0.800    0 0 0 1
G01503           CIRCULAR 1.000    0 0 0 1
G01504           CIRCULAR 1.000    0 0 0 1
G01505           CIRCULAR 0.800    0 0 0 1
G01506           CIRCULAR 0.800    0 0 0 1
G01507           CIRCULAR 0.800    0 0 0 1
G01508           CIRCULAR 1.000    0 0 0 1
G01509           CIRCULAR 0.800    0 0 0 1
G01510           CIRCULAR 0.800    0 0 0 1
G01511           CIRCULAR 1.000    0 0 0 1
G01512           CIRCULAR 1.000    0 0 0 1
G01513           CIRCULAR 0.800    0 0 0 1
G01514           CIRCULAR 0.800    0 0 0 1
G01515           CIRCULAR 1.200    0 0 0 1
G01516           CIRCULAR 0.800    0 0 0 1
G01517           CIRCULAR 0.800    0 0 0 1
G01518           CIRCULAR 0.800    0 0 0 1
G01519           CIRCULAR 0.800    0 0 0 1
G01520           CIRCULAR 1.000    0 0 0 1
G01521           CIRCULAR 1.000    0 0 0 1
G01522           CIRCULAR 0.800    0 0 0 1
G01523           CIRCULAR 0.800    0 0 0 1
G01524           CIRCULAR 0.800    0 0 0 1
G01525           CIRCULAR 0.800    0 0 0 1
G01526           CIRCULAR 0.800    0 0 0 1
G01527           CIRCULAR 1.000    0 0 0 1
G01528           CIRCULAR 0.800    0 0 0 1
G01529           CIRCULAR 1.000    0 0 0 1
G01530           CIRCULAR 1.000    0 0 0 1
G01531           CIRCULAR 0.800    0 0 0 1
G01532           CIRCULAR 0.800    0 0 0 1
G01533           CIRCULAR 0.800    0 0 0 1
G01534           CIRCULAR 1.200    0 0 0 1
G01535           CIRCULAR 0.800    0 0 0 1
G01536           CIRCULAR 1.000    0 0 0 1
G01537           CIRCULAR 0.800    0 0 0 1
G01538           CIRCULAR 1.200    0 0 0 1
G01539           CIRCULAR 1.200    0 0 0 1
G01540           CIRCULAR 1.000    0 0 0 1
G01541           CIRCULAR 0.800    0 0 0 1
G01542           CIRCULAR 0.800    0 0 0 1
G01543           CIRCULAR 1.000    0 0 0 1
G01544           CIRCULAR 0.800    0 0 0 1
G01545           CIRCULAR 0.800    0 0 0 1
G01546           CIRCULAR 0.800    0 0 0 1
G01547           CIRCULAR 0.800    0 0 0 1
G01548           CIRCULAR 0.800    0 0 0 1
G01549           CIRCULAR 0.800    0 0 0 1
G01550           CIRCULAR 0.800    0 0 0 1
G01551           CIRCULAR 0.800    0 0 0 1
G01552           CIRCULAR 0.800    0 0 0 1
G01553           CIRCULAR 0.800    0 0 0 1
G01554           CIRCULAR 1.200    0 0 0 1
G01555           CIRCULAR 1.200    0 0 0 1
G01556           CIRCULAR 0.800    0 0 0 1
G01557           CIRCULAR 0.800    0 0 0 1
G01558           CIRCULAR 1.000    0 0 0 1
G01559           CIRCULAR 0.800    0 0 0 1
G01560           CIRCULAR 0.800    0 0 0 1
G01561           CIRCULAR 0.800    0 0 0 1
G01562           CIRCULAR 0.800    0 0 0 1
G01563           CIRCULAR 0.800    0 0 0 1
G01564           CIRCULAR 0.800    0 0 0 1
G01565           CIRCULAR 0.800    0 0 0 1
G01566           CIRCULAR 0.800    0 0 0 1
G01567           CIRCULAR 1.000    0 0 0 1
G01568           CIRCULAR 0.800    0 0 0 1
G01569           CIRCULAR 0.800    0 0 0 1
G01570           CIRCULAR 0.800    0 0 0 1
G01571           CIRCULAR 1.200    0 0 0 1
G01572           CIRCULAR 0.800    0 0 0 1
G01573           CIRCULAR 0.800    0 0 0 1
G01574           CIRCULAR 0.800    0 0 0 1
G01575           CIRCULAR 0.800    0 0 0 1
G01576           CIRCULAR 0.800    0 0 0 1
G01577           CIRCULAR 1.000    0 0 0 1
G01578           CIRCULAR 1.000    0 0 0 1
G01579           CIRCULAR 1.000    0 0 0 1
G01580           CIRCULAR 0.800    0 0 0 1
G01581           CIRCULAR 0.800    0 0 0 1
G01582           CIRCULAR 0.800    0 0 0 1
G01583           CIRCULAR 0.800    0 0 0 1
G01584           CIRCULAR 0.800    0 0 0 1
G01585           CIRCULAR 0.800    0 0 0 1
G01586           CIRCULAR 0.800    0 0 0 1
G01587           CIRCULAR 0.800    0 0 0 1
G01588           CIRCULAR 0.800    0 0 0 1
G01589           CIRCULAR 0.800    0 0 0 1
G01590           CIRCULAR 0.800    0 0 0 1
G01591           CIRCULAR 0.800    0 0 0 1
G01592           CIRCULAR 0.800    0 0 0 1
G01593           CIRCULAR 0.800    0 0 0 1
G01594           CIRCULAR 0.800    0 0 0 1
G01595           CIRCULAR 0.800    0 0 0 1
G01596           CIRCULAR 0.800    0 0 0 1
G01597           CIRCULAR 0.800    0 0 0 1
G01598           CIRCULAR 0.800    0 0 0 1
G01599           CIRCULAR 0.800    0 0 0 1
G01600           CIRCULAR 1.000    0 0 0 1
G01601           CIRCULAR 1.000    0 0 0 1
G01602           CIRCULAR 1.000    0 0 0 1
G01603           CIRCULAR 1.000    0 0 0 1
G01604           CIRCULAR 0.800    0 0 0 1
G01605           CIRCULAR 1.000    0 0 0 1
G01606           CIRCULAR 1.000    0 0 0 1
G01607           CIRCULAR 0.800    0 0 0 1
G01608           CIRCULAR 0.800    0 0 0 1
G01609           CIRCULAR 0.800    0 0 0 1
G01610           CIRCULAR 0.800    0 0 0 1
G01611           CIRCULAR 0.800    0 0 0 1
G01612           CIRCULAR 0.800    0 0 0 1
G01613           CIRCULAR 0.800    0 0 0 1
G01614           CIRCULAR 0.800    0 0 0 1
G01615           CIRCULAR 0.800    0 0 0 1
G01616           CIRCULAR 0.800    0 0 0 1
G01617           CIRCULAR 0.800    0 0 0 1
G01618           CIRCULAR 0.800    0 0 0 1
G01619           CIRCULAR 1.000    0 0 0 1
G01620           CIRCULAR 0.800    0 0 0 1
G01621           CIRCULAR 0.800    0 0 0 1
G01622           CIRCULAR 0.800    0 0 0 1
G01623           CIRCULAR 0.800    0 0 0 1
G01624           CIRCULAR 0.800    0 0 0 1
G01625           CIRCULAR 0.800    0 0 0 1
G01626           CIRCULAR 0.800    0 0 0 1
G01627           CIRCULAR 0.800    0 0 0 1
G01628           CIRCULAR 1.000    0 0 0 1
G01629           CIRCULAR 1.000    0 0 0 1
G01630           CIRCULAR 0.800    0 0 0 1
G01631           CIRCULAR 0.800    0 0 0 1
G01632           CIRCULAR 0.800    0 0 0 1
G01633           CIRCULAR 1.000    0 0 0 1
G01634           CIRCULAR 0.800    0 0 0 1
G01635           CIRCULAR 0.800    0 0 0 1
G01636           CIRCULAR 0.800    0 0 0 1
G01637           CIRCULAR 0.800    0 0 0 1
G01638           CIRCULAR 0.800    0 0 0 1
G01639           CIRCULAR 1.000    0 0 0 1
G01640           CIRCULAR 0.800    0 0 0 1
G01641           CIRCULAR 1.200    0 0 0 1
G01642           CIRCULAR 1.200    0 0 0 1
G01643           CIRCULAR 1.000    0 0 0 1
G01644           CIRCULAR 1.000    0 0 0 1
G01645           CIRCULAR 1.000    0 0 0 1
G01646           CIRCULAR 0.800    0 0 0 1
G01647           CIRCULAR 0.800    0 0 0 1
G01648           CIRCULAR 0.800    0 0 0 1
G01649           CIRCULAR 0.800    0 0 0 1
G01650           CIRCULAR 0.800    0 0 0 1
G01651           CIRCULAR 0.800    0 0 0 1
G01652           CIRCULAR 0.800    0 0 0 1
G01653           CIRCULAR 0.800    0 0 0 1
G01654           CIRCULAR 0.800    0 0 0 1
G01655           CIRCULAR 0.800    0 0 0 1
G01656           CIRCULAR 0.800    0 0 0 1
G01657           CIRCULAR 0.800    0 0 0 1
G01658           CIRCULAR 1.000    0 0 0 1
G01659           CIRCULAR 0.800    0 0 0 1
G01660           CIRCULAR 0.800    0 0 0 1
G01661           CIRCULAR 0.800    0 0 0 1
G01662           CIRCULAR 0.800    0 0 0 1
G01663           CIRCULAR 0.800    0 0 0 1
G01664           CIRCULAR 0.800    0 0 0 1
G01665           CIRCULAR 0.800    0 0 0 1
G01666           CIRCULAR 0.800    0 0 0 1
G01667           CIRCULAR 0.800    0 0 0 1
G01668           CIRCULAR 0.800    0 0 0 1
G01669           CIRCULAR 0.800    0 0 0 1
G01670           CIRCULAR 1.000    0 0 0 1
G01671           CIRCULAR 0.800    0 0 0 1
G01672           CIRCULAR 0.800    0 0 0 1
G01673           CIRCULAR 0.800    0 0 0 1
G01674           CIRCULAR 0.800    0 0 0 1
G01675           CIRCULAR 0.800    0 0 0 1
G01676           CIRCULAR 0.800    0 0 0 1
G01677           CIRCULAR 0.800    0 0 0 1
G01678           CIRCULAR 0.800    0 0 0 1
G01679           CIRCULAR 0.800    0 0 0 1
G01680           CIRCULAR 0.800    0 0 0 1
G01681           CIRCULAR 1.200    0 0 0 1
G01682           CIRCULAR 1.200    0 0 0 1
G01683           CIRCULAR 0.800    0 0 0 1
G01684           CIRCULAR 0.800    0 0 0 1
G01685           CIRCULAR 1.000    0 0 0 1
G01686           CIRCULAR 0.800    0 0 0 1
G01687           CIRCULAR 0.800    0 0 0 1
G01688           CIRCULAR 1.000    0 0 0 1
G01689           CIRCULAR 0.800    0 0 0 1
G01690           CIRCULAR 0.800    0 0 0 1
G01691           CIRCULAR 1.000    0 0 0 1
G01692           CIRCULAR 1.000    0 0 0 1
G01693           CIRCULAR 0.800    0 0 0 1
G01694           CIRCULAR 0.800    0 0 0 1
G01695           CIRCULAR 0.800    0 0 0 1
G01696           CIRCULAR 0.800    0 0 0 1
G01697           CIRCULAR 0.800    0 0 0 1
G01698           CIRCULAR 0.800    0 0 0 1
G01699           CIRCULAR 0.800    0 0 0 1
G01700           CIRCULAR 0.800    0 0 0 1
G01701           CIRCULAR 0.800    0 0 0 1
G01702           CIRCULAR 0.800    0 0 0 1
G01703           CIRCULAR 0.800    0 0 0 1
G01704           CIRCULAR 0.800    0 0 0 1
G01705           CIRCULAR 1.000    0 0 0 1
G01706           CIRCULAR 1.000    0 0 0 1
G01707           CIRCULAR 0.800    0 0 0 1
G01708           CIRCULAR 0.800    0 0 0 1
G01709           CIRCULAR 0.800    0 0 0 1
G01710           CIRCULAR 0.800    0 0 0 1
G01711           CIRCULAR 0.800    0 0 0 1
G01712           CIRCULAR 0.800    0 0 0 1
G01713           CIRCULAR 0.800    0 0 0 1
G01714           CIRCULAR 0.800    0 0 0 1
G01715           CIRCULAR 0.800    0 0 0 1
G01716           CIRCULAR 0.800    0 0 0 1
G01717           CIRCULAR 0.800    0 0 0 1
G01718           CIRCULAR 1.000    0 0 0 1
G01719           CIRCULAR 0.800    0 0 0 1
G01720           CIRCULAR 0.800    0 0 0 1
G01721           CIRCULAR 0.800    0 0 0 1
G01722           CIRCULAR 0.800    0 0 0 1
G01723           CIRCULAR 0.800    0 0 0 1
G01724           CIRCULAR 0.800    0 0 0 1
G01725           CIRCULAR 0.800    0 0 0 1
G01726           CIRCULAR 0.800    0 0 0 1
G01727           CIRCULAR 0.800    0 0 0 1
G01728           CIRCULAR 0.800    0 0 0 1
G01729           CIRCULAR 0.800    0 0 0 1
G01730           CIRCULAR 0.800    0 0 0 1
G01731           CIRCULAR 1.200    0 0 0 1
G01732           CIRCULAR 1.200    0 0 0 1
G01733           CIRCULAR 0.800    0 0 0 1
G01734           CIRCULAR 0.800    0 0 0 1
G01735           CIRCULAR 0.800    0 0 0 1
G01736           CIRCULAR 0.800    0 0 0 1
G01737           CIRCULAR 0.800    0 0 0 1
G01738           CIRCULAR 0.800    0 0 0 1
G01739           CIRCULAR 0.800    0 0 0 1
G01740           CIRCULAR 0.800    0 0 0 1
G01741           CIRCULAR 0.800    0 0 0 1
G01742           CIRCULAR 0.800    0 0 0 1
G01743           CIRCULAR 0.800    0 0 0 1
G01744           CIRCULAR 1.000    0 0 0 1
G01745           CIRCULAR 0.800    0 0 0 1
G01746           CIRCULAR 0.800    0 0 0 1
G01747           CIRCULAR 0.800    0 0 0 1
G01748           CIRCULAR 0.800    0 0 0 1
G01749           CIRCULAR 0.800    0 0 0 1
G01750           CIRCULAR 0.800    0 0 0 1
G01751           CIRCULAR 0.800    0 0 0 1
G01752           CIRCULAR 0.800    0 0 0 1
G01753           CIRCULAR 0.800    0 0 0 1
G01754           CIRCULAR 0.800    0 0 0 1
G01755           CIRCULAR 0.800    0 0 0 1
G01756           CIRCULAR 1.000    0 0 0 1
G01757           CIRCULAR 1.000    0 0 0 1
G01758           CIRCULAR 0.800    0 0 0 1
G01759           CIRCULAR 1.200    0 0 0 1
G01760           CIRCULAR 0.800    0 0 0 1
G01761           CIRCULAR 0.800    0 0 0 1
G01762           CIRCULAR 1.200    0 0 0 1
G01763           CIRCULAR 0.800    0 0 0 1
G01764           CIRCULAR 0.800    0 0 0 1
G01765           CIRCULAR 0.800    0 0 0 1
G01766           CIRCULAR 0.800    0 0 0 1
G01767           CIRCULAR 0.800    0 0 0 1
G01768           CIRCULAR 0.800    0 0 0 1
G01769           CIRCULAR 0.800    0 0 0 1
G01770           CIRCULAR 0.800    0 0 0 1
G01771           CIRCULAR 0.800    0 0 0 1
G01772           CIRCULAR 1.000    0 0 0 1
G01773           CIRCULAR 1.000    0 0 0 1
G01774           CIRCULAR 0.800    0 0 0 1
G01775           CIRCULAR 1.000    0 0 0 1
G01776           CIRCULAR 1.000    0 0 0 1
G01777           CIRCULAR 1.200    0 0 0 1
G01778           CIRCULAR 0.800    0 0 0 1
G01779           CIRCULAR 1.000    0 0 0 1
G01780           CIRCULAR 0.800    0 0 0 1
G01781           CIRCULAR 1.000    0 0 0 1
G01782           CIRCULAR 0.800    0 0 0 1
G01783           CIRCULAR 0.800    0 0 0 1
G01784           CIRCULAR 1.000    0 0 0 1
G01785           CIRCULAR 0.800    0 0 0 1
G01786           CIRCULAR 0.800    0 0 0 1
G01787           CIRCULAR 0.800    0 0 0 1
G01788           CIRCULAR 0.800    0 0 0 1
G01789           CIRCULAR 0.800    0 0 0 1
G01790           CIRCULAR 0.800    0 0 0 1
G01791           CIRCULAR 0.800    0 0 0 1
G01792           CIRCULAR 0.800    0 0 0 1
G01793           CIRCULAR 0.800    0 0 0 1
G01794           CIRCULAR 1.000    0 0 0 1
G01795           CIRCULAR 1.000    0 0 0 1
G01796           CIRCULAR 1.000    0 0 0 1
G01797           CIRCULAR 1.000    0 0 0 1
G01798           CIRCULAR 0.800    0 0 0 1
G01799           CIRCULAR 0.800    0 0 0 1
G01800           CIRCULAR 1.000    0 0 0 1
G01801           CIRCULAR 0.800    0 0 0 1
G01802           CIRCULAR 0.800    0 0 0 1
G01803           CIRCULAR 0.800    0 0 0 1
G01804           CIRCULAR 1.000    0 0 0 1
G01805           CIRCULAR 0.800    0 0 0 1
G01806           CIRCULAR 0.800    0 0 0 1
G01807           CIRCULAR 0.800    0 0 0 1
G01808           CIRCULAR 1.000    0 0 0 1
G01809           CIRCULAR 1.000    0 0 0 1
G01810           CIRCULAR 0.800    0 0 0 1
G01811           CIRCULAR 0.800    0 0 0 1
G01812           CIRCULAR 0.800    0 0 0 1
G01813           CIRCULAR 0.800    0 0 0 1
G01814           CIRCULAR 0.800    0 0 0 1
G01815           CIRCULAR 0.800    0 0 0 1
G01816           CIRCULAR 1.000    0 0 0 1
G01817           CIRCULAR 0.800    0 0 0 1
G01818           CIRCULAR 1.000    0 0 0 1
G01819           CIRCULAR 0.800    0 0 0 1
G01820           CIRCULAR 1.000    0 0 0 1
G01821           CIRCULAR 0.800    0 0 0 1
G01822           CIRCULAR 1.000    0 0 0 1
G01823           CIRCULAR 0.800    0 0 0 1
G01824           CIRCULAR 0.800    0 0 0 1
G01825           CIRCULAR 0.800    0 0 0 1
G01826           CIRCULAR 0.800    0 0 0 1
G01827           CIRCULAR 0.800    0 0 0 1
G01828           CIRCULAR 1.000    0 0 0 1
G01829           CIRCULAR 1.000    0 0 0 1
G01830           CIRCULAR 0.800    0 0 0 1
G01831           CIRCULAR 0.800    0 0 0 1
G01832           CIRCULAR 0.800    0 0 0 1
G01833           CIRCULAR 1.000    0 0 0 1
G01834           CIRCULAR 0.800    0 0 0 1
G01835           CIRCULAR 0.800    0 0 0 1
G01836           CIRCULAR 0.800    0 0 0 1
G01837           CIRCULAR 1.000    0 0 0 1
G01838           CIRCULAR 1.000    0 0 0 1
G01839           CIRCULAR 0.800    0 0 0 1
G01840           CIRCULAR 1.000    0 0 0 1
G01841           CIRCULAR 1.000    0 0 0 1
G01842           CIRCULAR 0.800    0 0 0 1
G01843           CIRCULAR 1.000    0 0 0 1
G01844           CIRCULAR 1.000    0 0 0 1
G01845           CIRCULAR 1.000    0 0 0 1
G01846           CIRCULAR 1.000    0 0 0 1
G01847           CIRCULAR 0.800    0 0 0 1
G01848           CIRCULAR 0.800    0 0 0 1
G01849           CIRCULAR 0.800    0 0 0 1
G01850           CIRCULAR 0.800    0 0 0 1
G01851           CIRCULAR 0.800    0 0 0 1
G01852           CIRCULAR 0.800    0 0 0 1
G01853           CIRCULAR 1.000    0 0 0 1
G01854           CIRCULAR 1.000    0 0 0 1
G01855           CIRCULAR 0.800    0 0 0 1
G01856           CIRCULAR 0.800    0 0 0 1
G01857           CIRCULAR 0.800    0 0 0 1
G01858           CIRCULAR 0.800    0 0 0 1
G01859           CIRCULAR 0.800    0 0 0 1
G01860           CIRCULAR 0.800    0 0 0 1
G01861           CIRCULAR 0.800    0 0 0 1
G01862           CIRCULAR 0.800    0 0 0 1
G01863           CIRCULAR 0.800    0 0 0 1
G01864           CIRCULAR 0.800    0 0 0 1
G01865           CIRCULAR 0.800    0 0 0 1
G01866           CIRCULAR 0.800    0 0 0 1
G01867           CIRCULAR 0.800    0 0 0 1
G01868           CIRCULAR 0.800    0 0 0 1
G01869           CIRCULAR 1.000    0 0 0 1
G01870           CIRCULAR 0.800    0 0 0 1
G01871           CIRCULAR 0.800    0 0 0 1
G01872           CIRCULAR 0.800    0 0 0 1
G01873           CIRCULAR 0.800    0 0 0 1
G01874           CIRCULAR 0.800    0 0 0 1
G01875           CIRCULAR 0.800    0 0 0 1
G01876           CIRCULAR 0.800    0 0 0 1
G01877           CIRCULAR 0.800    0 0 0 1
G01878           CIRCULAR 0.800    0 0 0 1
G01879           CIRCULAR 0.800    0 0 0 1
G01880           CIRCULAR 0.800    0 0 0 1
G01881           CIRCULAR 0.800    0 0 0 1
G01882           CIRCULAR 0.800    0 0 0 1
G01883           CIRCULAR 0.800    0 0 0 1
G01884           CIRCULAR 0.800    0 0 0 1
G01885           CIRCULAR 1.000    0 0 0 1
G01886           CIRCULAR 0.800    0 0 0 1
G01887           CIRCULAR 0.800    0 0 0 1
G01888           CIRCULAR 0.800    0 0 0 1
G01889           CIRCULAR 0.800    0 0 0 1
G01890           CIRCULAR 0.800    0 0 0 1
G01891           CIRCULAR 0.800    0 0 0 1
G01892           CIRCULAR 1.000    0 0 0 1
G01893           CIRCULAR 0.800    0 0 0 1
G01894           CIRCULAR 0.800    0 0 0 1
G01895           CIRCULAR 0.800    0 0 0 1
G01896           CIRCULAR 0.800    0 0 0 1
G01897           CIRCULAR 0.800    0 0 0 1
G01898           CIRCULAR 0.800    0 0 0 1
G01899           CIRCULAR 0.800    0 0 0 1
G01900           CIRCULAR 0.800    0 0 0 1
G01901           CIRCULAR 1.000    0 0 0 1
G01902           CIRCULAR 0.800    0 0 0 1
G01903           CIRCULAR 0.800    0 0 0 1
G01904           CIRCULAR 1.200    0 0 0 1
G01905           CIRCULAR 1.200    0 0 0 1
G01906           CIRCULAR 1.200    0 0 0 1
G01907           CIRCULAR 1.200    0 0 0 1
G01908           CIRCULAR 0.800    0 0 0 1
G01909           CIRCULAR 0.800    0 0 0 1
G01910           CIRCULAR 0.800    0 0 0 1
G01911           CIRCULAR 1.200    0 0 0 1
G01912           CIRCULAR 0.800    0 0 0 1
G01913           CIRCULAR 0.800    0 0 0 1
G01914           CIRCULAR 1.000    0 0 0 1
G01915           CIRCULAR 1.200    0 0 0 1
G01916           CIRCULAR 0.800    0 0 0 1
G01917           CIRCULAR 0.800    0 0 0 1
G01918           CIRCULAR 0.800    0 0 0 1
G01919           CIRCULAR 0.800    0 0 0 1
G01920           CIRCULAR 1.000    0 0 0 1
G01921           CIRCULAR 0.800    0 0 0 1
G01922           CIRCULAR 0.800    0 0 0 1
G01923           CIRCULAR 0.800    0 0 0 1
G01924           CIRCULAR 0.800    0 0 0 1
G01925           CIRCULAR 0.800    0 0 0 1
G01926           CIRCULAR 1.000    0 0 0 1
G01927           CIRCULAR 0.800    0 0 0 1
G01928           CIRCULAR 0.800    0 0 0 1
G01929           CIRCULAR 1.000    0 0 0 1
G01930           CIRCULAR 0.800    0 0 0 1
G01931           CIRCULAR 0.800    0 0 0 1
G01932           CIRCULAR 0.800    0 0 0 1
G01933           CIRCULAR 0.800    0 0 0 1
G01934           CIRCULAR 0.800    0 0 0 1
G01935           CIRCULAR 0.800    0 0 0 1
G01936           CIRCULAR 0.800    0 0 0 1
G01937           CIRCULAR 0.800    0 0 0 1
G01938           CIRCULAR 0.800    0 0 0 1
G01939           CIRCULAR 0.800    0 0 0 1
G01940           CIRCULAR 0.800    0 0 0 1
G01941           CIRCULAR 0.800    0 0 0 1
G01942           CIRCULAR 0.800    0 0 0 1
G01943           CIRCULAR 0.800    0 0 0 1
G01944           CIRCULAR 1.000    0 0 0 1
G01945           CIRCULAR 0.800    0 0 0 1
G01946           CIRCULAR 0.800    0 0 0 1
G01947           CIRCULAR 0.800    0 0 0 1
G01948           CIRCULAR 0.800    0 0 0 1
G01949           CIRCULAR 0.800    0 0 0 1
G01950           CIRCULAR 0.800    0 0 0 1
G01951           CIRCULAR 0.800    0 0 0 1
G01952           CIRCULAR 0.800    0 0 0 1
G01953           CIRCULAR 0.800    0 0 0 1
G01954           CIRCULAR 0.800    0 0 0 1
G01955           CIRCULAR 0.800    0 0 0 1
G01956           CIRCULAR 0.800    0 0 0 1
G01957           CIRCULAR 0.800    0 0 0 1
G01958           CIRCULAR 0.800    0 0 0 1
G01959           CIRCULAR 0.800    0 0 0 1
G01960           CIRCULAR 1.000    0 0 0 1
G01961           CIRCULAR 0.800    0 0 0 1
G01962           CIRCULAR 1.000    0 0 0 1
G01963           CIRCULAR 0.800    0 0 0 1
G01964           CIRCULAR 0.800    0 0 0 1
G01965           CIRCULAR 0.800    0 0 0 1
G01966           CIRCULAR 0.800    0 0 0 1
G01967           CIRCULAR 0.800    0 0 0 1
G01968           CIRCULAR 0.800    0 0 0 1
G01969           CIRCULAR 0.800    0 0 0 1
G01970           CIRCULAR 0.800    0 0 0 1
G01971           CIRCULAR 0.800    0 0 0 1
G01972           CIRCULAR 0.800    0 0 0 1
G01973           CIRCULAR 0.800    0 0 0 1
G01974           CIRCULAR 0.800    0 0 0 1
G01975           CIRCULAR 0.800    0 0 0 1
G01976           CIRCULAR 0.800    0 0 0 1
G01977           CIRCULAR 0.800    0 0 0 1
G01978           CIRCULAR 0.800    0 0 0 1
G01979           CIRCULAR 0.800    0 0 0 1
G01980           CIRCULAR 0.800    0 0 0 1
G01981           CIRCULAR 0.800    0 0 0 1
G01982           CIRCULAR 0.800    0 0 0 1
G01983           CIRCULAR 0.800    0 0 0 1
G01984           CIRCULAR 0.800    0 0 0 1
G01985           CIRCULAR 0.800    0 0 0 1
G01986           CIRCULAR 0.800    0 0 0 1
G01987           CIRCULAR 0.800    0 0 0 1
G01988           CIRCULAR 0.800    0 0 0 1
G01989           CIRCULAR 0.800    0 0 0 1
G01990           CIRCULAR 0.800    0 0 0 1
G01991           CIRCULAR 0.800    0 0 0 1
G01992           CIRCULAR 0.800    0 0 0 1
G01993           CIRCULAR 0.800    0 0 0 1
G01994           CIRCULAR 0.800    0 0 0 1
G01995           CIRCULAR 0.800    0 0 0 1
G01996           CIRCULAR 0.800    0 0 0 1
G01997           CIRCULAR 0.800    0 0 0 1
G01998           CIRCULAR 0.800    0 0 0 1
G01999           CIRCULAR 1.000    0 0 0 1
G02000           CIRCULAR 0.800    0 0 0 1
G02001           CIRCULAR 0.800    0 0 0 1
G02002           CIRCULAR 0.800    0 0 0 1
G02003           CIRCULAR 0.800    0 0 0 1
G02004           CIRCULAR 0.800    0 0 0 1
G02005           CIRCULAR 0.800    0 0 0 1
G02006           CIRCULAR 0.800    0 0 0 1
G02007           CIRCULAR 0.800    0 0 0 1
G02008           CIRCULAR 0.800    0 0 0 1
G02009           CIRCULAR 0.800    0 0 0 1
G02010           CIRCULAR 0.800    0 0 0 1
G02011           CIRCULAR 0.800    0 0 0 1
G02012           CIRCULAR 0.800    0 0 0 1
G02013           CIRCULAR 0.800    0 0 0 1
G02014           CIRCULAR 0.800    0 0 0 1
G02015           CIRCULAR 0.800    0 0 0 1
G02016           CIRCULAR 0.800    0 0 0 1
G02017           CIRCULAR 0.800    0 0 0 1
G02018           CIRCULAR 0.800    0 0 0 1
G02019           CIRCULAR 1.200    0 0 0 1
G02020           CIRCULAR 0.800    0 0 0 1
G02021           CIRCULAR 0.800    0 0 0 1
G02022           CIRCULAR 1.000    0 0 0 1
G02023           CIRCULAR 0.800    0 0 0 1
G02024           CIRCULAR 1.000    0 0 0 1
G02025           CIRCULAR 0.800    0 0 0 1
G02026           CIRCULAR 0.800    0 0 0 1
G02027           CIRCULAR 0.800    0 0 0 1
G02028           CIRCULAR 1.000    0 0 0 1
G02029           CIRCULAR 1.000    0 0 0 1
G02030           CIRCULAR 0.800    0 0 0 1
G02031           CIRCULAR 0.800    0 0 0 1
G02032           CIRCULAR 1.200    0 0 0 1
G02033           CIRCULAR 0.800    0 0 0 1
G02034           CIRCULAR 0.800    0 0 0 1
G02035           CIRCULAR 0.800    0 0 0 1
G02036           CIRCULAR 0.800    0 0 0 1
G02037           CIRCULAR 1.000    0 0 0 1
G02038           CIRCULAR 1.000    0 0 0 1
G02039           CIRCULAR 1.200    0 0 0 1
G02040           CIRCULAR 0.800    0 0 0 1
G02041           CIRCULAR 0.800    0 0 0 1
G02042           CIRCULAR 0.800    0 0 0 1
G02043           CIRCULAR 0.800    0 0 0 1
G02044           CIRCULAR 0.800    0 0 0 1
G02045           CIRCULAR 0.800    0 0 0 1
G02046           CIRCULAR 0.800    0 0 0 1
G02047           CIRCULAR 0.800    0 0 0 1
G02048           CIRCULAR 1.000    0 0 0 1
G02049           CIRCULAR 1.000    0 0 0 1
G02050           CIRCULAR 0.800    0 0 0 1
G02051           CIRCULAR 0.800    0 0 0 1
G02052           CIRCULAR 0.800    0 0 0 1
G02053           CIRCULAR 0.800    0 0 0 1
G02054           CIRCULAR 1.000    0 0 0 1
G02055           CIRCULAR 0.800    0 0 0 1
G02056           CIRCULAR 0.800    0 0 0 1
G02057           CIRCULAR 0.800    0 0 0 1
G02058           CIRCULAR 0.800    0 0 0 1
G02059           CIRCULAR 0.800    0 0 0 1
G02060           CIRCULAR 0.800    0 0 0 1
G02061           CIRCULAR 0.800    0 0 0 1
G02062           CIRCULAR 1.000    0 0 0 1
G02063           CIRCULAR 1.000    0 0 0 1
G02064           CIRCULAR 1.000    0 0 0 1
G02065           CIRCULAR 1.000    0 0 0 1
G02066           CIRCULAR 1.000    0 0 0 1
G02067           CIRCULAR 0.800    0 0 0 1
G02068           CIRCULAR 1.000    0 0 0 1
G02069           CIRCULAR 0.800    0 0 0 1
G02070           CIRCULAR 0.800    0 0 0 1
G02071           CIRCULAR 0.800    0 0 0 1
G02072           CIRCULAR 0.800    0 0 0 1
G02073           CIRCULAR 0.800    0 0 0 1
G02074           CIRCULAR 0.800    0 0 0 1
G02075           CIRCULAR 0.800    0 0 0 1
G02076           CIRCULAR 0.800    0 0 0 1
G02077           CIRCULAR 0.800    0 0 0 1
G02078           CIRCULAR 0.800    0 0 0 1
G02079           CIRCULAR 0.800    0 0 0 1
G02080           CIRCULAR 0.800    0 0 0 1
G02081           CIRCULAR 0.800    0 0 0 1
G02082           CIRCULAR 0.800    0 0 0 1
G02083           CIRCULAR 0.800    0 0 0 1
G02084           CIRCULAR 0.800    0 0 0 1
G02085           CIRCULAR 0.800    0 0 0 1
G02086           CIRCULAR 0.800    0 0 0 1
G02087           CIRCULAR 1.200    0 0 0 1
G02088           CIRCULAR 1.200    0 0 0 1
G02089           CIRCULAR 0.800    0 0 0 1
G02090           CIRCULAR 0.800    0 0 0 1
G02091           CIRCULAR 0.800    0 0 0 1
G02092           CIRCULAR 0.800    0 0 0 1
G02093           CIRCULAR 0.800    0 0 0 1
G02094           CIRCULAR 0.800    0 0 0 1
G02095           CIRCULAR 0.800    0 0 0 1
G02096           CIRCULAR 0.800    0 0 0 1
G02097           CIRCULAR 0.800    0 0 0 1
G02098           CIRCULAR 0.800    0 0 0 1
G02099           CIRCULAR 1.200    0 0 0 1
G02100           CIRCULAR 0.800    0 0 0 1
G02101           CIRCULAR 1.200    0 0 0 1
G02102           CIRCULAR 1.200    0 0 0 1
G02103           CIRCULAR 0.800    0 0 0 1
G02104           CIRCULAR 0.800    0 0 0 1
G02105           CIRCULAR 0.800    0 0 0 1
G02106           CIRCULAR 0.800    0 0 0 1
G02107           CIRCULAR 0.800    0 0 0 1
G02108           CIRCULAR 0.800    0 0 0 1
G02109           CIRCULAR 0.800    0 0 0 1
G02110           CIRCULAR 0.800    0 0 0 1
G02111           CIRCULAR 0.800    0 0 0 1
G02112           CIRCULAR 0.800    0 0 0 1
G02113           CIRCULAR 0.800    0 0 0 1
G02114           CIRCULAR 0.800    0 0 0 1
G02115           CIRCULAR 0.800    0 0 0 1
G02116           CIRCULAR 0.800    0 0 0 1
G02117           CIRCULAR 0.800    0 0 0 1
G02118           CIRCULAR 0.800    0 0 0 1
G02119           CIRCULAR 1.200    0 0 0 1
G02120           CIRCULAR 0.800    0 0 0 1
G02121           CIRCULAR 0.800    0 0 0 1
G02122           CIRCULAR 0.800    0 0 0 1
G02123           CIRCULAR 0.800    0 0 0 1
G02124           CIRCULAR 0.800    0 0 0 1
G02125           CIRCULAR 0.800    0 0 0 1
G02126           CIRCULAR 0.800    0 0 0 1
G02127           CIRCULAR 0.800    0 0 0 1
G02128           CIRCULAR 0.800    0 0 0 1
G02129           CIRCULAR 0.800    0 0 0 1
G02130           CIRCULAR 0.800    0 0 0 1
G02131           CIRCULAR 0.800    0 0 0 1
G02132           CIRCULAR 0.800    0 0 0 1
G02133           CIRCULAR 1.000    0 0 0 1
G02134           CIRCULAR 0.800    0 0 0 1
G02135           CIRCULAR 0.800    0 0 0 1
G02136           CIRCULAR 0.800    0 0 0 1
G02137           CIRCULAR 0.800    0 0 0 1
G02138           CIRCULAR 0.800    0 0 0 1
G02139           CIRCULAR 0.800    0 0 0 1
G02140           CIRCULAR 0.800    0 0 0 1
G02141           CIRCULAR 1.000    0 0 0 1
G02142           CIRCULAR 0.800    0 0 0 1
G02143           CIRCULAR 0.800    0 0 0 1
G02144           CIRCULAR 0.800    0 0 0 1
G02145           CIRCULAR 0.800    0 0 0 1
G02146           CIRCULAR 0.800    0 0 0 1
G02147           CIRCULAR 1.200    0 0 0 1
G02148           CIRCULAR 1.200    0 0 0 1
G02149           CIRCULAR 0.800    0 0 0 1
G02150           CIRCULAR 0.800    0 0 0 1
G02151           CIRCULAR 0.800    0 0 0 1
G02152           CIRCULAR 0.800    0 0 0 1
G02153           CIRCULAR 0.800    0 0 0 1
G02154           CIRCULAR 0.800    0 0 0 1
G02155           CIRCULAR 0.800    0 0 0 1
G02156           CIRCULAR 0.800    0 0 0 1
G02157           CIRCULAR 1.000    0 0 0 1
G02158           CIRCULAR 1.000    0 0 0 1
G02159           CIRCULAR 0.800    0 0 0 1
G02160           CIRCULAR 0.800    0 0 0 1
G02161           CIRCULAR 0.800    0 0 0 1
G02162           CIRCULAR 0.800    0 0 0 1
G02163           CIRCULAR 0.800    0 0 0 1
G02164           CIRCULAR 0.800    0 0 0 1
G02165           CIRCULAR 1.200    0 0 0 1
G02166           CIRCULAR 1.200    0 0 0 1
G02167           CIRCULAR 0.800    0 0 0 1
G02168           CIRCULAR 0.800    0 0 0 1
G02169           CIRCULAR 1.200    0 0 0 1
G02170           CIRCULAR 1.000    0 0 0 1
G02171           CIRCULAR 0.800    0 0 0 1
G02172           CIRCULAR 0.800    0 0 0 1
G02173           CIRCULAR 0.800    0 0 0 1
G02174           CIRCULAR 0.800    0 0 0 1
G02175           CIRCULAR 1.000    0 0 0 1
G02176           CIRCULAR 1.000    0 0 0 1
G02177           CIRCULAR 0.800    0 0 0 1
G02178           CIRCULAR 0.800    0 0 0 1
G02179           CIRCULAR 0.800    0 0 0 1
G02180           CIRCULAR 0.800    0 0 0 1
G02181           CIRCULAR 1.000    0 0 0 1
G02182           CIRCULAR 0.800    0 0 0 1
G02183           CIRCULAR 0.800    0 0 0 1
G02184           CIRCULAR 0.800    0 0 0 1
G02185           CIRCULAR 0.800    0 0 0 1
G02186           CIRCULAR 0.800    0 0 0 1
G02187           CIRCULAR 1.000    0 0 0 1
G02188           CIRCULAR 1.000    0 0 0 1
G02189           CIRCULAR 0.800    0 0 0 1
G02190           CIRCULAR 0.800    0 0 0 1
G02191           CIRCULAR 1.000    0 0 0 1
G02192           CIRCULAR 0.800    0 0 0 1
G02193           CIRCULAR 0.800    0 0 0 1
G02194           CIRCULAR 1.000    0 0 0 1
G02195           CIRCULAR 0.800    0 0 0 1
G02196           CIRCULAR 0.800    0 0 0 1
G02197           CIRCULAR 0.800    0 0 0 1
G02198           CIRCULAR 0.800    0 0 0 1
G02199           CIRCULAR 1.000    0 0 0 1
G02200           CIRCULAR 1.000    0 0 0 1
G02201           CIRCULAR 0.800    0 0 0 1
G02202           CIRCULAR 1.000    0 0 0 1
G02203           CIRCULAR 0.800    0 0 0 1
G02204           CIRCULAR 1.200    0 0 0 1
G02205           CIRCULAR 1.200    0 0 0 1
G02206           CIRCULAR 0.800    0 0 0 1
G02207           CIRCULAR 0.800    0 0 0 1
G02208           CIRCULAR 0.800    0 0 0 1
G02209           CIRCULAR 1.000    0 0 0 1
G02210           CIRCULAR 1.000    0 0 0 1
G02211           CIRCULAR 0.800    0 0 0 1
G02212           CIRCULAR 0.800    0 0 0 1
G02213           CIRCULAR 0.800    0 0 0 1
G02214           CIRCULAR 0.800    0 0 0 1
G02215           CIRCULAR 1.000    0 0 0 1
G02216           CIRCULAR 0.800    0 0 0 1
G02217           CIRCULAR 0.800    0 0 0 1
G02218           CIRCULAR 0.800    0 0 0 1
G02219           CIRCULAR 1.000    0 0 0 1
G02220           CIRCULAR 1.000    0 0 0 1
G02221           CIRCULAR 1.000    0 0 0 1
G02222           CIRCULAR 0.800    0 0 0 1
G02223           CIRCULAR 0.800    0 0 0 1
G02224           CIRCULAR 0.800    0 0 0 1
G02225           CIRCULAR 0.800    0 0 0 1
G02226           CIRCULAR 0.800    0 0 0 1
G02227           CIRCULAR 0.800    0 0 0 1
G02228           CIRCULAR 0.800    0 0 0 1
O00001           CIRCULAR 1.200    0 0 0 1
O00002           CIRCULAR 1.200    0 0 0 1
O00003           CIRCULAR 1.200    0 0 0 1
O00004           CIRCULAR 1.200    0 0 0 1
O00005           CIRCULAR 1.000    0 0 0 1
O00006           CIRCULAR 1.200    0 0 0 1
O00007           CIRCULAR 1.200    0 0 0 1
O00008           CIRCULAR 1.200    0 0 0 1
O00009           CIRCULAR 1.200    0 0 0 1
O00010           CIRCULAR 1.200    0 0 0 1
O00011           CIRCULAR 1.000    0 0 0 1
O00012           CIRCULAR 1.000    0 0 0 1
O00013           CIRCULAR 1.200    0 0 0 1
O00014           CIRCULAR 1.200    0 0 0 1
O00015           CIRCULAR 1.200    0 0 0 1
O00016           CIRCULAR 1.200    0 0 0 1
O00017           CIRCULAR 1.000    0 0 0 1
O00018           CIRCULAR 1.000    0 0 0 1
O00019           CIRCULAR 1.000    0 0 0 1
O00020           CIRCULAR 1.000    0 0 0 1
O00021           CIRCULAR 1.000    0 0 0 1
O00022           CIRCULAR 1.000    0 0 0 1
O00023           CIRCULAR 1.200    0 0 0 1
O00024           CIRCULAR 1.200    0 0 0 1
O00025           CIRCULAR 1.200    0 0 0 1
O00026           CIRCULAR 1.200    0 0 0 1
O00027           CIRCULAR 1.000    0 0 0 1
O00028           CIRCULAR 1.200    0 0 0 1
O00029           CIRCULAR 1.500    0 0 0 1
O00030           CIRCULAR 1.200    0 0 0 1
O00031           CIRCULAR 1.200    0 0 0 1
O00032           CIRCULAR 1.000    0 0 0 1
O00033           CIRCULAR 1.200    0 0 0 1
O00034           CIRCULAR 1.000    0 0 0 1
O00035           CIRCULAR 1.200    0 0 0 1
O00036           CIRCULAR 1.000    0 0 0 1
O00037           CIRCULAR 1.200    0 0 0 1
O00038           CIRCULAR 1.200    0 0 0 1
O00039           CIRCULAR 1.200    0 0 0 1
O00040           CIRCULAR 1.200    0 0 0 1
O00041           CIRCULAR 1.200    0 0 0 1
O00042           CIRCULAR 1.200    0 0 0 1
O00043           CIRCULAR 1.000    0 0 0 1
O00044           CIRCULAR 1.200    0 0 0 1
O00045           CIRCULAR 1.200    0 0 0 1
O00046           CIRCULAR 1.500    0 0 0 1
O00047           CIRCULAR 1.000    0 0 0 1
O00048           CIRCULAR 1.200    0 0 0 1

[COORDINATES]
N00398           7630.000     2030.000    
N02137           7950.000     4730.000    
N02500           6470.000     850.000     
N01266           3270.000     3830.000    
N01804           5870.000     4350.000    
N00619           1190.000     2950.000    
N01451           6870.000     2970.000    
N02124           7950.000     5010.000    
N01289           7970.000     5390.000    
N01309           1190.000     2590.000    
N00160           2130.000     2470.000    
N01705           5710.000     2810.000    
N01965           4970.000     3670.000    
N01394           210.000      2310.000    
N01815           5870.000     3990.000    
N01830           6610.000     3710.000    
N01464           2250.000     2850.000    
N01538           5590.000     2150.000    
N01762           7230.000     2330.000    
N01997           5230.000     3890.000    
N01846           6310.000     4170.000    
N01955           2910.000     2510.000    
N01933           3350.000     3130.000    
N00795           2730.000     2370.000    
N01010           6110.000     5930.000    
N00934           6810.000     430.000     
N02236           4730.000     6430.000    
N01540           5430.000     2070.000    
N00127           2870.000     1570.000    
N02782           6170.000     5990.000    
N00303           6130.000     3370.000    
N01372           1610.000     2730.000    
N00850           6010.000     6050.000    
N01176           10410.000    5210.000    
N00366           8010.000     3470.000    
N02315           6910.000     2110.000    
N00786           7190.000     730.000     
N02373           7010.000     1410.000    
N00701           2850.000     4570.000    
N00125           2610.000     1810.000    
N02125           7950.000     4750.000    
N01212           7410.000     6790.000    
N01042           2190.000     3670.000    
N02139           7770.000     4690.000    
N01969           4870.000     3670.000    
N01510           9750.000     5590.000    
N01945           2490.000     2590.000    
N01852           6910.000     4350.000    
N01629           5050.000     910.000     
N01807           5850.000     4190.000    
N00277           5370.000     3410.000    
N01694           5830.000     3050.000    
N00149           2330.000     2390.000    
N01113           6370.000     3330.000    
N02078           2450.000     3790.000    
N00238           5470.000     2010.000    
N02609           4190.000     1610.000    
N01768           6850.000     2530.000    
N02240           4550.000     6350.000    
N00346           7130.000     2510.000    
N01929           3490.000     2910.000    
N01580           4970.000     4990.000    
N00917           250.000      2810.000    
N00056           7410.000     4870.000    
N00998           6450.000     5950.000    
N00959           2650.000     1910.000    
N01878           4670.000     2150.000    
N01625           7290.000     1110.000    
N01125           7990.000     1870.000    
N00797           3170.000     2870.000    
N02652           3210.000     3870.000    
N01343           3210.000     2310.000    
N01761           7250.000     2510.000    
N00703           3030.000     4270.000    
N01118           6470.000     3450.000    
N02246           4110.000     6250.000    
N02527           1650.000     4470.000    
N01412           3130.000     4070.000    
N02055           4270.000     4070.000    
N00102           1950.000     2210.000    
N02659           2510.000     3290.000    
N02498           7170.000     3910.000    
N02476           7010.000     3910.000    
N01207           8210.000     4270.000    
N02127           7970.000     5090.000    
N00567           7430.000     6450.000    
N01422           6850.000     3930.000    
N02033           4450.000     4810.000    
N01163           5990.000     270.000     
N02587           10370.000    5890.000    
N00173           3150.000     2330.000    
N00204           3250.000     3670.000    
N01049           1350.000     4170.000    
N00195           4010.000     2070.000    
N01483           3950.000     2070.000    
N00626           7690.000     1310.000    
N00248           5470.000     2270.000    
N01784           5610.000     2590.000    
N01526           7970.000     5190.000    
N02259           4450.000     6230.000    
N02266           6450.000     6710.000    
N02069           2290.000     4670.000    
N02711           8010.000     6010.000    
N02501           6610.000     650.000     
N02046           5170.000     5070.000    
N02551           6070.000     6710.000    
N02370           7030.000     1050.000    
N02381           4730.000     350.000     
N02698           1590.000     3010.000    
N01270           2930.000     2670.000    
N00954           7930.000     3890.000    
N00575           8550.000     6530.000    
N02596           10430.000    5350.000    
N02761           5410.000     2890.000    
N02677           2530.000     3490.000    
N01953           3390.000     2550.000    
N02187           4410.000     570.000     
N02530           1550.000     4550.000    
N02330           6130.000     570.000     
N01718           6610.000     3010.000    
N01505           7450.000     6210.000    
N01640           5910.000     130.000     
N01342           3250.000     3790.000    
N00900           4490.000     1790.000    
N00987           5630.000     5990.000    
N00886           7390.000     4150.000    
N00877           7490.000     2730.000    
N00495           5070.000     5870.000    
N01039           5530.000     3250.000    
N00405           5790.000     630.000     
N01756           6730.000     2530.000    
N00172           2990.000     2370.000    
N00697           2190.000     3690.000    
N01745           7170.000     2030.000    
N02243           3990.000     6490.000    
N00510           5310.000     5930.000    
N02366           6970.000     1370.000    
N00721           1930.000     4850.000    
N01836           6130.000     3950.000    
N02087           8310.000     2810.000    
N00260           6090.000     1970.000    
N02303           7110.000     6910.000    
N00027           7910.000     3710.000    
N01962           4570.000     3570.000    
N00481           5490.000     5930.000    
N01065           4610.000     6530.000    
N00793           3090.000     2330.000    
N02289           7090.000     6630.000    
N02545           5870.000     6310.000    
N00349           7870.000     3290.000    
N02781           5070.000     6110.000    
N01353           710.000      4210.000    
N02432           6050.000     50.000      
N02368           6950.000     1430.000    
N02309           7670.000     6930.000    
N01809           5550.000     4210.000    
N00892           6350.000     1210.000    
N02075           2410.000     3730.000    
N01204           9330.000     5430.000    
N00685           3690.000     3930.000    
N00309           5670.000     3450.000    
N02074           2250.000     3690.000    
N00637           6170.000     90.000      
N02331           6330.000     1010.000    
N01411           1990.000     2610.000    
N00168           3670.000     1990.000    
N02441           7610.000     3370.000    
N02627           4310.000     2070.000    
N01599           9170.000     5030.000    
N01297           6630.000     2170.000    
N01858           7130.000     4170.000    
N02102           2590.000     5110.000    
N00491           5170.000     6030.000    
N00916           150.000      2630.000    
N02088           8310.000     2750.000    
N00547           7610.000     5090.000    
N00676           5470.000     1710.000    
N01515           890.000      2270.000    
N01707           5970.000     2790.000    
N01838           6530.000     4170.000    
N02099           2270.000     5090.000    
N02769           7390.000     2730.000    
N02284           6730.000     6050.000    
N02273           6530.000     7290.000    
N01370           1990.000     2630.000    
N02557           6470.000     6870.000    
N01816           6070.000     3730.000    
N02634           9450.000     5030.000    
N01956           3330.000     3010.000    
N02268           6150.000     6710.000    
N00247           5590.000     2210.000    
N02449           8630.000     5070.000    
N00322           3170.000     3930.000    
N01806           6050.000     3730.000    
N02110           8010.000     6050.000    
N01791           5970.000     3310.000    
N00107           2110.000     2550.000    
N02518           3370.000     2850.000    
N01646           470.000      2050.000    
N01873           5410.000     1710.000    
N02377           7010.000     1150.000    
N01439           6190.000     3750.000    
N02275           6630.000     6370.000    
N00654           6410.000     150.000     
N01397           210.000      2470.000    
N00413           6210.000     4410.000    
N00875           7370.000     3790.000    
N00118           2050.000     3130.000    
N01310           810.000      2530.000    
N01255           7970.000     5030.000    
N01716           6210.000     2830.000    
N01665           7990.000     5830.000    
N00531           9110.000     4670.000    
N02814           7350.000     3110.000    
N00989           5350.000     5950.000    
N02004           5190.000     5010.000    
N01401           1510.000     2910.000    
N02626           4410.000     2090.000    
N01726           6650.000     2770.000    
N00573           10230.000    5290.000    
N01627           7050.000     830.000     
N01827           6210.000     3730.000    
N00704           3070.000     4190.000    
N01112           5750.000     3750.000    
N02702           6990.000     3390.000    
N02695           1190.000     4390.000    
N00332           7410.000     3890.000    
N02138           7450.000     4730.000    
N02670           2770.000     3330.000    
N01052           1350.000     4210.000    
N00045           9870.000     4910.000    
N00356           7770.000     3370.000    
N02261           4430.000     5970.000    
N02382           3410.000     2690.000    
N02169           8770.000     4290.000    
N00083           6470.000     590.000     
N02575           5130.000     1010.000    
N02010           4950.000     4690.000    
N00342           7990.000     3470.000    
N01517           590.000      2230.000    
N01536           10230.000    5310.000    
N00390           7890.000     2090.000    
N02832           6610.000     5670.000    
N02752           890.000      4130.000    
N00233           6010.000     50.000      
N01146           8390.000     6390.000    
N01040           2690.000     5110.000    
N02302           7110.000     6990.000    
N02216           5110.000     6630.000    
N00824           5410.000     2510.000    
N02637           8570.000     5070.000    
N01059           1930.000     4790.000    
N00123           2190.000     2150.000    
N01854           6910.000     3910.000    
N01792           5850.000     3670.000    
N00792           2970.000     2350.000    
N00487           5250.000     5670.000    
N02828           6150.000     6850.000    
N01529           6550.000     5690.000    
N00323           3190.000     3750.000    
N00269           6110.000     2090.000    
N01502           6850.000     2110.000    
N00274           5190.000     3470.000    
N02674           2270.000     3290.000    
N02534           1390.000     4270.000    
N01123           7370.000     2990.000    
N02433           6170.000     70.000      
N00219           5390.000     2150.000    
N02430           4610.000     4850.000    
N01389           2610.000     1870.000    
N00013           670.000      2210.000    
N01572           5930.000     2090.000    
N02491           6210.000     90.000      
N00034           6690.000     6010.000    
N01025           2090.000     2610.000    
N01652           1590.000     2190.000    
N02643           3190.000     3910.000    
N00384           7770.000     1910.000    
N02824           7130.000     890.000     
N02802           8250.000     3290.000    
N01892           4930.000     4250.000    
N02844           6230.000     5950.000    
N02512           10070.000    5690.000    
N01871           7370.000     3650.000    
N00239           5630.000     2090.000    
N00640           5730.000     50.000      
N02661           2770.000     3350.000    
N02537           1350.000     4410.000    
N01061           3970.000     6490.000    
N02345           5790.000     770.000     
N01886           5430.000     2870.000    
N01126           7690.000     1470.000    
N02667           3050.000     3590.000    
N00317           2610.000     5070.000    
N02657           2710.000     3770.000    
N00922           110.000      2830.000    
N02094           3010.000     5070.000    
N02439           1070.000     2550.000    
N01575           6170.000     2750.000    
N01578           7750.000     3870.000    
N02811           7310.000     3310.000    
N01102           8290.000     2370.000    
N01492           7110.000     2270.000    
N01488           7330.000     1810.000    
N00117           2110.000     3010.000    
N01404           6950.000     1450.000    
N00111           2530.000     1950.000    
N01137           9050.000     5150.000    
N02292           7810.000     6630.000    
N00673           190.000      2430.000    
N00425           7310.000     5270.000    
N01855           6910.000     3690.000    
N02244           3970.000     6510.000    
N00367           7590.000     1170.000    
N00010           1070.000     2270.000    
N01482           3290.000     2290.000    
N00373           6910.000     430.000     
N02077           2490.000     3750.000    
N02313           7370.000     2230.000    
N01819           6870.000     4350.000    
N00289           6870.000     3510.000    
N00190           3750.000     1910.000    
N01767           6870.000     2530.000    
N00999           6590.000     5950.000    
N01043           1170.000     3270.000    
N02787           2770.000     3210.000    
N01748           6790.000     2110.000    
N00618           2250.000     5090.000    
N00408           7490.000     6230.000    
N02822           4970.000     2350.000    
N00698           2130.000     5530.000    
N01906           4810.000     3370.000    
N00401           6070.000     570.000     
N02568           6610.000     6230.000    
N00018           6610.000     3430.000    
N01528           6610.000     5730.000    
N00122           2170.000     2290.000    
N02599           150.000      2970.000    
N00424           7350.000     5110.000    
N00186           2890.000     2330.000    
N00210           3430.000     3290.000    
N01787           5630.000     2590.000    
N00159           2830.000     3110.000    
N00707           4790.000     5770.000    
N02638           8470.000     5070.000    
N00161           2030.000     2230.000    
N01710           5810.000     2830.000    
N01140           9910.000     6090.000    
N01912           3030.000     3170.000    
N00700           2330.000     5530.000    
N01143           8230.000     6370.000    
N00242           5350.000     2150.000    
N02390           4330.000     1850.000    
N01154           8490.000     6510.000    
N02834           6290.000     5690.000    
N02208           6810.000     3350.000    
N00783           570.000      4090.000    
N00389           7950.000     1910.000    
N00951           6650.000     7170.000    
N02660           2730.000     3530.000    
N02825           5230.000     4910.000    
N02604           7750.000     3350.000    
N01778           6150.000     2570.000    
N02388           5070.000     930.000     
N01486           3510.000     2290.000    
N01660           3490.000     2490.000    
N00586           9950.000     5970.000    
N01280           4650.000     4690.000    
N02280           6630.000     6130.000    
N00711           2210.000     5530.000    
N00799           3330.000     2890.000    
N01708           5830.000     2830.000    
N01364           2570.000     5250.000    
N00203           3270.000     3510.000    
N02628           4510.000     2110.000    
N02406           5090.000     6170.000    
N01833           6930.000     3690.000    
N02015           4950.000     5050.000    
N01135           9130.000     5450.000    
N00175           3190.000     2370.000    
N00090           210.000      2330.000    
N02090           8290.000     2590.000    
N02131           7930.000     3910.000    
N00993           6050.000     5970.000    
N01011           6110.000     5810.000    
N02611           4970.000     1070.000    
N02469           7390.000     4370.000    
N02249           4410.000     6050.000    
N01614           5950.000     170.000     
N01654           6290.000     2070.000    
N02291           7310.000     6650.000    
N01919           4370.000     3350.000    
N00994           5630.000     6050.000    
N01964           4770.000     3450.000    
N01781           6190.000     2530.000    
N02100           2270.000     5110.000    
N02204           4110.000     1490.000    
N02715           7310.000     3370.000    
N02378           7030.000     1010.000    
N02523           1250.000     2970.000    
N01111           5550.000     3730.000    
N01560           3990.000     4010.000    
N02157           8710.000     4290.000    
N02161           8510.000     4250.000    
N01306           1130.000     2890.000    
N00646           5710.000     110.000     
N01649           1050.000     2250.000    
N01077           5110.000     3390.000    
N01331           7390.000     6130.000    
N01746           6830.000     2310.000    
N00166           1890.000     3050.000    
N01247           5550.000     150.000     
N02383           4770.000     390.000     
N00903           5430.000     750.000     
N00550           5570.000     5110.000    
N00709           3010.000     4370.000    
N01961           4550.000     4170.000    
N00624           7650.000     1270.000    
N00304           5830.000     3330.000    
N02743           4990.000     190.000     
N01387           2710.000     1730.000    
N01380           2310.000     3190.000    
N00228           5750.000     2110.000    
N02656           2730.000     3730.000    
N01662           3950.000     1790.000    
N01400           1510.000     2750.000    
N01971           5410.000     3650.000    
N02823           7250.000     1030.000    
N02483           7130.000     3330.000    
N01430           6910.000     3650.000    
N00810           4330.000     1890.000    
N00347           7910.000     2990.000    
N01959           4470.000     4210.000    
N01373           1650.000     2190.000    
N02805           8970.000     4570.000    
N00375           7870.000     1770.000    
N01410           1810.000     2650.000    
N00853           6070.000     6090.000    
N00901           5110.000     970.000     
N02274           6710.000     6710.000    
N01379           7590.000     4710.000    
N01722           6650.000     2810.000    
N02520           2430.000     3110.000    
N01624           7230.000     970.000     
N02182           2790.000     1770.000    
N00984           6570.000     5910.000    
N00664           8030.000     6610.000    
N00902           5250.000     870.000     
N01008           6690.000     5930.000    
N00996           6250.000     5970.000    
N00509           5090.000     5970.000    
N02177           2650.000     1970.000    
N01487           7350.000     1930.000    
N01975           4290.000     4090.000    
N01800           5830.000     3970.000    
N01992           5050.000     4250.000    
N02086           8290.000     2830.000    
N00930           170.000      3990.000    
N02307           7570.000     6990.000    
N01070           5230.000     4570.000    
N02569           7050.000     6430.000    
N00320           3050.000     4250.000    
N01248           5350.000     170.000     
N00504           4970.000     5910.000    
N00095           270.000      1950.000    
N00825           5210.000     2470.000    
N01635           5370.000     150.000     
N01031           7410.000     3370.000    
N00383           7370.000     2310.000    
N01166           10090.000    5730.000    
N01585           1850.000     4730.000    
N01695           5810.000     2890.000    
N00054           5510.000     5090.000    
N02002           5350.000     4330.000    
N01026           2090.000     2630.000    
N02109           8010.000     6090.000    
N00660           2550.000     2130.000    
N02354           6050.000     630.000     
N02355           6090.000     990.000     
N01925           4750.000     3410.000    
N01048           1230.000     4130.000    
N00344           7930.000     3650.000    
N00592           10530.000    6070.000    
N00313           2390.000     5590.000    
N00382           7350.000     2130.000    
N01320           1450.000     2690.000    
N01810           5770.000     4190.000    
N01904           4170.000     3290.000    
N01867           7150.000     3670.000    
N02023           5710.000     5270.000    
N00251           5670.000     2150.000    
N01264           4550.000     4970.000    
N02141           7950.000     4270.000    
N00933           6410.000     570.000     
N01253           7590.000     5110.000    
N01206           8390.000     4270.000    
N01948           2470.000     2590.000    
N00307           5670.000     3430.000    
N01281           1730.000     5110.000    
N00064           650.000      2190.000    
N01035           6870.000     3110.000    
N00441           7750.000     6330.000    
N02064           2110.000     4770.000    
N01887           5470.000     3730.000    
N01325           7150.000     6150.000    
N01766           6870.000     2770.000    
N01687           5610.000     2350.000    
N02636           8730.000     5070.000    
N00856           5310.000     5070.000    
N02708           3370.000     2750.000    
N01130           7970.000     2850.000    
N02468           7470.000     4370.000    
N01086           7410.000     3130.000    
N02438           830.000      2510.000    
N02054           4250.000     4070.000    
N02517           3330.000     3130.000    
N00556           6210.000     5670.000    
N01120           5730.000     3050.000    
N00170           3430.000     2270.000    
N02532           1390.000     4590.000    
N00198           3250.000     3210.000    
N02027           4910.000     5030.000    
N02465           7450.000     5450.000    
N02306           7470.000     7030.000    
N01383           7050.000     510.000     
N01092           5250.000     6430.000    
N00726           1270.000     2370.000    
N00642           5150.000     190.000     
N01241           4430.000     6070.000    
N02179           2890.000     1650.000    
N01588           1910.000     4810.000    
N00135           5050.000     170.000     
N01371           1730.000     2690.000    
N01338           5850.000     3610.000    
N02795           7990.000     5870.000    
N02418           350.000      3970.000    
N01302           6130.000     3030.000    
N02328           6450.000     590.000     
N00740           9310.000     4910.000    
N02300           7110.000     6670.000    
N01368           4210.000     3310.000    
N01019           510.000      2850.000    
N02101           2310.000     5110.000    
N00727           1210.000     2910.000    
N01382           7150.000     610.000     
N01719           6290.000     2810.000    
N00312           2550.000     5490.000    
N02319           7790.000     2030.000    
N01663           7070.000     890.000     
N00928           150.000      3890.000    
N02493           5330.000     830.000     
N02831           5670.000     6350.000    
N01692           7090.000     2990.000    
N00355           7890.000     3470.000    
N00351           7910.000     3350.000    
N02522           1190.000     3070.000    
N00232           5870.000     50.000      
N00069           1610.000     2190.000    
N01361           4710.000     5910.000    
N02475           3870.000     2090.000    
N01479           4230.000     1670.000    
N01773           6390.000     2750.000    
N01210           7450.000     6490.000    
N00093           230.000      2250.000    
N02799           9350.000     5070.000    
N01020           990.000      2910.000    
N02239           4670.000     6410.000    
N00128           2970.000     1510.000    
N00240           5430.000     2250.000    
N00921           610.000      2810.000    
N02642           3250.000     3570.000    
N01467           2730.000     2470.000    
N00364           7950.000     3210.000    
N00179           3690.000     2050.000    
N00693           3070.000     3370.000    
N02803           9690.000     5530.000    
N00744           8770.000     4550.000    
N01251           7910.000     5090.000    
N01714           6130.000     2810.000    
N00958           2610.000     1990.000    
N02846           8150.000     2830.000    
N02641           3210.000     3590.000    
N00644           5370.000     130.000     
N02721           5790.000     6310.000    
N00621           7830.000     1710.000    
N00650           6630.000     230.000     
N00774           6050.000     6850.000    
N02252           4090.000     6150.000    
N00321           3130.000     4110.000    
N01920           4170.000     3330.000    
N02173           7090.000     3010.000    
N00609           590.000      4090.000    
N00569           7430.000     6430.000    
N02276           6630.000     6530.000    
N00625           7570.000     1110.000    
N01788           5810.000     2790.000    
N02007           5470.000     4690.000    
N00310           6010.000     3490.000    
N01960           4450.000     4470.000    
N02457           7410.000     6810.000    
N00138           5430.000     70.000      
N02726           8950.000     5030.000    
N00432           7550.000     6330.000    
N02113           8010.000     5510.000    
N01731           6170.000     2810.000    
N00115           2230.000     2770.000    
N01584           3070.000     2390.000    
N00177           2470.000     2310.000    
N00273           5390.000     3430.000    
N00991           5730.000     5990.000    
N02299           6850.000     6330.000    
N01446           5850.000     4230.000    
N00566           8870.000     4290.000    
N01594           9930.000     5870.000    
N02747           5430.000     2430.000    
N01700           7130.000     2750.000    
N00492           5230.000     5970.000    
N01984           4770.000     5310.000    
N02751           730.000      4130.000    
N01520           8190.000     3330.000    
N00615           3130.000     5090.000    
N01021           590.000      2850.000    
N02410           5690.000     6310.000    
N01583           5530.000     5150.000    
N02724           9090.000     4690.000    
N02210           6990.000     3350.000    
N00860           6270.000     6030.000    
N01736           6190.000     3030.000    
N01562           9910.000     6070.000    
N00126           2730.000     1670.000    
N00630           6250.000     150.000     
N01543           5530.000     710.000     
N00426           7410.000     5110.000    
N00548           7450.000     5070.000    
N01101           8210.000     2130.000    
N00565           9050.000     4250.000    
N01885           5450.000     2450.000    
N00369           7270.000     750.000     
N01893           4730.000     4210.000    
N00502           5330.000     5910.000    
N00691           1990.000     4150.000    
N00428           7470.000     5330.000    
N01426           6850.000     3910.000    
N00180           3730.000     1950.000    
N02505           6810.000     5970.000    
N01115           6350.000     3350.000    
N02130           7930.000     4230.000    
N02744           6390.000     150.000     
N02687           2190.000     3730.000    
N01038           5530.000     3410.000    
N02158           7990.000     4250.000    
N00906           5830.000     590.000     
N00337           7370.000     3510.000    
N01449           6210.000     4390.000    
N00183           2010.000     2170.000    
N01632           2630.000     1990.000    
N01490           7290.000     2190.000    
N01116           6790.000     3390.000    
N02095           2950.000     5070.000    
N02209           6850.000     3170.000    
N01803           5870.000     4190.000    
N00653           6970.000     470.000     
N00143           2310.000     3030.000    
N01994           5470.000     4330.000    
N00918           410.000      2790.000    
N00513           4690.000     5830.000    
N02085           8310.000     2870.000    
N01131           7830.000     2810.000    
N00815           5450.000     2010.000    
N00869           4730.000     310.000     
N00234           6110.000     70.000      
N02327           6610.000     830.000     
N00360           7930.000     3450.000    
N01958           4510.000     4090.000    
N01715           6110.000     2790.000    
N01741           6870.000     2810.000    
N02755           5510.000     4370.000    
N02791           7390.000     4250.000    
N00908           6390.000     3030.000    
N02535           1390.000     4550.000    
N01213           7650.000     6790.000    
N02529           1590.000     4510.000    
N02585           9310.000     4950.000    
N02067           2370.000     4510.000    
N02385           4550.000     510.000     
N02730           9530.000     5310.000    
N02084           8350.000     2830.000    
N01208           8010.000     4270.000    
N02607           4170.000     1650.000    
N00572           7550.000     6310.000    
N01555           5430.000     3570.000    
N02325           7090.000     530.000     
N02356           6110.000     1210.000    
N01563           9850.000     5770.000    
N00363           7990.000     3330.000    
N01480           4310.000     1810.000    
N02123           7890.000     5090.000    
N01699           6950.000     2750.000    
N00488           5430.000     5250.000    
N01686           5810.000     2550.000    
N02332           6410.000     890.000     
N01620           6030.000     530.000     
N01901           4970.000     3390.000    
N01862           7150.000     3910.000    
N02640           3030.000     3570.000    
N01856           7010.000     3670.000    
N00672           550.000      4050.000    
N01808           5770.000     4210.000    
N01260           4430.000     4710.000    
N01466           2530.000     2510.000    
N00354           8070.000     3270.000    
N01586           1810.000     4670.000    
N02147           3250.000     3150.000    
N00770           10570.000    6030.000    
N01970           4570.000     3630.000    
N00632           6150.000     130.000     
N00723           2770.000     4810.000    
N01653           3110.000     2330.000    
N01647           790.000      2210.000    
N00164           1830.000     3050.000    
N00705           1950.000     4830.000    
N00359           8030.000     3350.000    
N00139           5570.000     50.000      
N02053           4010.000     3990.000    
N01738           6870.000     3010.000    
N00535           9530.000     5250.000    
N00985           5950.000     6030.000    
N01298           6330.000     2130.000    
N02735           9630.000     4990.000    
N02671           2310.000     3150.000    
N00148           2210.000     2770.000    
N02035           4930.000     5070.000    
N01712           6190.000     2590.000    
N01036           6930.000     3510.000    
N02196           4150.000     1570.000    
N01539           5830.000     2150.000    
N00533           9210.000     4810.000    
N01751           7110.000     2290.000    
N00217           5470.000     1750.000    
N01582           5470.000     5170.000    
N00397           7870.000     2110.000    
N00200           3290.000     3270.000    
N01755           6910.000     2530.000    
N00158           2410.000     3050.000    
N01720           6650.000     3010.000    
N00888           7790.000     2810.000    
N00270           6290.000     2090.000    
N00311           5790.000     3550.000    
N01974           4450.000     4150.000    
N01485           3430.000     2370.000    
N00690           1910.000     4250.000    
N01587           1910.000     4870.000    
N02739           9330.000     5050.000    
N02081           8310.000     3170.000    
N00140           5710.000     50.000      
N01598           10010.000    5910.000    
N01721           6410.000     3030.000    
N00540           7250.000     5350.000    
N00015           7070.000     2070.000    
N02260           4450.000     5830.000    
N01218           7470.000     7150.000    
N00457           6970.000     5670.000    
N02375           7310.000     1190.000    
N01037           5610.000     3390.000    
N00604           1610.000     4410.000    
N02047           4970.000     5050.000    
N02678           2710.000     3530.000    
N00739           9370.000     4790.000    
N00087           6890.000     490.000     
N01074           5510.000     4410.000    
N02515           4490.000     5850.000    
N01198           10530.000    5130.000    
N01900           4810.000     3410.000    
N01532           6670.000     5670.000    
N02736           9830.000     4990.000    
N01834           6970.000     3950.000    
N00395           7810.000     2070.000    
N02845           6130.000     5710.000    
N00511           5130.000     5890.000    
N00688           5050.000     3670.000    
N01650           1230.000     2210.000    
N01435           6210.000     3630.000    
N02489           7310.000     1450.000    
N01489           7270.000     2090.000    
N00295           6190.000     3650.000    
N02584           9390.000     5070.000    
N02111           7990.000     5190.000    
N02767           7350.000     2630.000    
N01351           7170.000     610.000     
N02509           10170.000    5430.000    
N02391           4330.000     1810.000    
N02001           5210.000     4290.000    
N00508           5090.000     5890.000    
N02450           8530.000     5070.000    
N02745           6030.000     230.000     
N02369           7030.000     1150.000    
N02615           6610.000     3730.000    
N00909           6210.000     3030.000    
N00259           5950.000     2050.000    
N01769           6650.000     2550.000    
N01685           5810.000     2350.000    
N02679           2450.000     3750.000    
N01290           7470.000     2750.000    
N02840           5310.000     6250.000    
N00503           5090.000     6050.000    
N00294           6250.000     3370.000    
N00001           590.000      2190.000    
N02521           1210.000     2950.000    
N00494           4890.000     5830.000    
N00914           170.000      2750.000    
N01114           6530.000     3290.000    
N00326           6770.000     2070.000    
N01369           1530.000     2710.000    
N00506           5390.000     5950.000    
N02029           4610.000     4950.000    
N01057           1690.000     4470.000    
N02649           3130.000     3850.000    
N01868           7130.000     3670.000    
N02013           4670.000     4550.000    
N02143           7950.000     3870.000    
N01927           3790.000     2950.000    
N00932           1050.000     4150.000    
N02070           2190.000     4750.000    
N00016           6870.000     2090.000    
N01405           1550.000     3010.000    
N01857           7130.000     3450.000    
N02105           2630.000     5170.000    
N02706           3410.000     2750.000    
N01004           6630.000     5850.000    
N01684           5610.000     2370.000    
N01145           8450.000     6490.000    
N02098           2310.000     5090.000    
N01141           10050.000    5930.000    
N02219           5470.000     6450.000    
N02407           5250.000     6270.000    
N02212           7390.000     3450.000    
N02842           5690.000     150.000     
N02119           7970.000     4990.000    
N01402           1750.000     2950.000    
N01069           4730.000     5790.000    
N00187           3430.000     2250.000    
N00827           5490.000     2510.000    
N01046           1570.000     4310.000    
N00153           2490.000     2010.000    
N01824           5530.000     4750.000    
N01611           7670.000     1390.000    
N01844           6190.000     3910.000    
N00552           5930.000     5410.000    
N01643           7330.000     1790.000    
N02411           8430.000     6470.000    
N00482           5390.000     5910.000    
N01349           2710.000     2330.000    
N01574           6170.000     2590.000    
N01576           5810.000     2710.000    
N02017           5370.000     5050.000    
N01350           6970.000     450.000     
N00379           7530.000     1030.000    
N00142           2070.000     2690.000    
N02544           6050.000     6150.000    
N01291           6050.000     6370.000    
N00147           2090.000     3030.000    
N01434           6210.000     3470.000    
N01657           3170.000     3170.000    
N01777           6150.000     2430.000    
N00008           1270.000     2250.000    
N01797           5710.000     3510.000    
N01613           5970.000     190.000     
N02447           9010.000     5070.000    
N01996           5450.000     3970.000    
N02073           2730.000     3570.000    
N00671           310.000      3970.000    
N01523           7830.000     1590.000    
N01122           7150.000     3570.000    
N01448           6090.000     4390.000    
N01458           10130.000    5950.000    
N02384           4770.000     410.000     
N01399           1490.000     2930.000    
N00065           770.000      2230.000    
N01390           2550.000     1930.000    
N01696           5950.000     3050.000    
N00011           950.000      2270.000    
N00675           6130.000     2170.000    
N01339           3150.000     3930.000    
N01597           9890.000     5770.000    
N00386           7850.000     1810.000    
N00229           6030.000     2110.000    
N00427           7550.000     5190.000    
N01609           7830.000     1670.000    
N01914           2830.000     3150.000    
N02061           2510.000     4270.000    
N02417           250.000      3970.000    
N02365           6950.000     1470.000    
N00100           2350.000     2250.000    
N00114           2270.000     2670.000    
N02778           5870.000     6030.000    
N01733           6390.000     2770.000    
N00352           7970.000     3130.000    
N00822           5230.000     2110.000    
N01879           5030.000     2390.000    
N01012           7590.000     1230.000    
N01896           5510.000     4350.000    
N02117           7990.000     4950.000    
N02068           2390.000     4510.000    
N01286           4550.000     3730.000    
N00237           6590.000     210.000     
N00067           1050.000     2270.000    
N00911           10350.000    5330.000    
N01313           330.000      2430.000    
N01258           4510.000     4150.000    
N01521           7970.000     3330.000    
N00651           6730.000     310.000     
N00416           6250.000     4410.000    
N00975           7370.000     3930.000    
N02440           1210.000     2570.000    
N02753           7390.000     3850.000    
N01890           4790.000     4190.000    
N01312           530.000      2490.000    
N00596           9950.000     5950.000    
N00024           7350.000     6990.000    
N01966           5470.000     3670.000    
N01775           6550.000     2530.000    
N02595           10270.000    5310.000    
N02032           4210.000     4950.000    
N02247           4110.000     5950.000    
N00927           90.000       3830.000    
N00299           5830.000     3390.000    
N01842           6230.000     4390.000    
N02558           7250.000     690.000     
N00745           8950.000     4550.000    
N00945           6710.000     7250.000    
N02720           3370.000     3030.000    
N02436           450.000      2470.000    
N02746           3270.000     3050.000    
N02741           9330.000     4930.000    
N01215           7790.000     6630.000    
N02775           3490.000     5070.000    
N01601           690.000      4270.000    
N01921           4550.000     3410.000    
N02128           7970.000     5070.000    
N00019           6450.000     3430.000    
N00301           5710.000     3370.000    
N01884           5390.000     2850.000    
N02608           4390.000     1470.000    
N00388           7970.000     2010.000    
N01723           6830.000     3010.000    
N00324           3230.000     3610.000    
N02490           7310.000     1390.000    
N02312           7390.000     2070.000    
N00020           6630.000     3310.000    
N01565           10030.000    5770.000    
N01940           3370.000     2830.000    
N01902           4890.000     3370.000    
N02434           6070.000     50.000      
N00990           6590.000     5910.000    
N02774           3570.000     5090.000    
N00622           7790.000     1550.000    
N00659           2530.000     2250.000    
N00099           1870.000     2150.000    
N00201           3510.000     3250.000    
N02786           2650.000     3310.000    
N01780           6170.000     2510.000    
N00833           7270.000     710.000     
N00546           7470.000     5070.000    
N02250           4090.000     6130.000    
N00214           5450.000     2310.000    
N00002           390.000      2130.000    
N00919           150.000      2830.000    
N01744           6830.000     2090.000    
N00333           7350.000     3650.000    
N02454           5810.000     3150.000    
N01442           6390.000     3990.000    
N00282           5490.000     3530.000    
N01090           6170.000     6290.000    
N02700           7450.000     3350.000    
N00374           6770.000     330.000     
N00439           8090.000     6350.000    
N01861           7170.000     4330.000    
N02028           4550.000     4910.000    
N00281           5590.000     3390.000    
N00193           3770.000     2150.000    
N01098           8150.000     2090.000    
N01799           5850.000     3990.000    
N01993           5430.000     4350.000    
N02631           9990.000     5010.000    
N02819           7410.000     2750.000    
N00620           1030.000     2930.000    
N02800           7470.000     3370.000    
N00931           910.000      4110.000    
N02283           6850.000     6110.000    
N02466           7430.000     4330.000    
N01352           7330.000     790.000     
N02112           7990.000     5350.000    
N02237           4730.000     6370.000    
N02467           7430.000     4350.000    
N02458           7810.000     6790.000    
N00150           2350.000     2290.000    
N02121           8430.000     5050.000    
N01891           4950.000     4230.000    
N02692           1930.000     4250.000    
N00066           950.000      2250.000    
N00669           8030.000     6450.000    
N01989           5030.000     4290.000    
N02644           3150.000     4050.000    
N01728           6830.000     2770.000    
N00268           6150.000     2270.000    
N00926           190.000      2930.000    
N02749           670.000      4070.000    
N00341           8010.000     3310.000    
N00264           5910.000     2090.000    
N00134           4950.000     210.000     
N02014           5350.000     4690.000    
N00687           3850.000     3950.000    
N01701           7270.000     2750.000    
N00553           6130.000     5590.000    
N01845           6710.000     4210.000    
N01420           6230.000     4350.000    
N01468           2450.000     2410.000    
N00455           7370.000     5330.000    
N02686           1950.000     4230.000    
N01910           3770.000     3270.000    
N00965           3490.000     2150.000    
N00443           7990.000     6190.000    
N02536           1430.000     4590.000    
N00627           7730.000     1390.000    
N01002           6170.000     5650.000    
N01491           7130.000     2090.000    
N02115           7930.000     4370.000    
N01872           7290.000     3430.000    
N02817           7370.000     2870.000    
N02714           7750.000     3310.000    
N02065           2230.000     4690.000    
N02583           9470.000     5250.000    
N01950           3010.000     2670.000    
N00602           1970.000     4990.000    
N00442           7910.000     6310.000    
N02294           7910.000     6770.000    
N02414           8150.000     6390.000    
N02408           5510.000     6330.000    
N00331           8330.000     3330.000    
N01427           6910.000     3850.000    
N00907           5950.000     590.000     
N00769           10350.000    6010.000    
N01656           3170.000     3250.000    
N02308           7410.000     7030.000    
N01869           7130.000     3570.000    
N00925           430.000      2870.000    
N00946           6630.000     7270.000    
N01385           2930.000     1530.000    
N00085           6770.000     670.000     
N02167           8910.000     4290.000    
N00979           7930.000     3670.000    
N01276           2810.000     4730.000    
N00873           6870.000     850.000     
N01326           7350.000     6250.000    
N01801           5850.000     3810.000    
N02648           2890.000     3810.000    
N02156           8790.000     4110.000    
N01790           5830.000     2570.000    
N01832           6910.000     4150.000    
N02364           6910.000     1630.000    
N01440           6150.000     3730.000    
N02750           850.000      4110.000    
N02008           5210.000     4710.000    
N00628           7850.000     1670.000    
N01764           7110.000     2510.000    
N01324           4630.000     5810.000    
N01550           8010.000     5550.000    
N01452           6850.000     2810.000    
N01214           7650.000     6630.000    
N00436           7870.000     6450.000    
N01000           6790.000     5990.000    
N00616           1950.000     4910.000    
N00588           9770.000     5650.000    
N01185           10210.000    5710.000    
N01303           9390.000     5290.000    
N00103           2090.000     2350.000    
N00852           6650.000     6050.000    
N01628           4930.000     710.000     
N00725           1370.000     2230.000    
N02288           7090.000     6650.000    
N01345           2830.000     2330.000    
N01293           6350.000     2470.000    
N00861           6250.000     6050.000    
N00022           6790.000     3350.000    
N00370           7150.000     630.000     
N02539           7390.000     930.000     
N01147           8450.000     6510.000    
N01820           6210.000     3890.000    
N02149           3330.000     2990.000    
N02487           3450.000     2630.000    
N02564           7850.000     3370.000    
N00365           8110.000     3350.000    
N02531           1390.000     4610.000    
N02079           2230.000     3510.000    
N00776           1550.000     4730.000    
N00261           6170.000     2150.000    
N02009           5230.000     4890.000    
N01559           6870.000     2710.000    
N00818           5030.000     2110.000    
N02215           5030.000     6550.000    
N01073           5530.000     4850.000    
N01897           5490.000     5070.000    
N00236           6390.000     130.000     
N01688           5770.000     2350.000    
N01006           6970.000     6010.000    
N01463           2350.000     2730.000    
N00406           5630.000     670.000     
N00677           5430.000     3670.000    
N02785           2570.000     3210.000    
N02619           6910.000     3710.000    
N01991           5070.000     4730.000    
N01441           6250.000     3930.000    
N00306           6350.000     3450.000    
N00554           6610.000     5650.000    
N02374           7310.000     1350.000    
N01299           6730.000     2070.000    
N00336           7370.000     3070.000    
N01915           4090.000     3330.000    
N00162           2510.000     3110.000    
N02549           6090.000     6550.000    
N01740           6850.000     2650.000    
N02134           7950.000     4650.000    
N02003           5230.000     4310.000    
N00243           5350.000     2230.000    
N02804           9490.000     5270.000    
N01693           7270.000     2990.000    
N00780           4950.000     5870.000    
N00515           4410.000     5790.000    
N00645           5530.000     110.000     
N02582           9610.000     5370.000    
N00091           230.000      2190.000    
N01690           5570.000     3050.000    
N02606           4670.000     1270.000    
N01817           6070.000     3710.000    
N02188           4550.000     490.000     
N01749           7270.000     2490.000    
N00857           7090.000     5670.000    
N02794           7970.000     5870.000    
N01913           2930.000     3190.000    
N00636           6190.000     90.000      
N01428           6910.000     3970.000    
N02026           4710.000     5010.000    
N02145           3270.000     3150.000    
N01988           5070.000     4310.000    
N00284           5470.000     2690.000    
N01782           6370.000     2570.000    
N00682           4010.000     4010.000    
N01499           7890.000     2330.000    
N01305           1210.000     3010.000    
N00288           6890.000     3350.000    
N02738           9550.000     5250.000    
N01554           5450.000     3430.000    
N01407           1230.000     2910.000    
N01525           7950.000     4210.000    
N00963           3670.000     1950.000    
N00915           150.000      2770.000    
N02508           9950.000     6010.000    
N02685           2210.000     3630.000    
N00223           3510.000     2250.000    
N00213           6890.000     390.000     
N02709           4990.000     250.000     
N02556           6250.000     6850.000    
N01496           6890.000     2010.000    
N01725           6410.000     2790.000    
N00714           2730.000     4890.000    
N01254           8030.000     5090.000    
N02526           750.000      4330.000    
N00835           7230.000     690.000     
N01391           6670.000     270.000     
N01508           8750.000     4150.000    
N02103           2530.000     5110.000    
N01864           7350.000     3890.000    
N01429           6910.000     4130.000    
N00105           2430.000     2350.000    
N01335           1950.000     5610.000    
N01703           5710.000     2830.000    
N01456           8290.000     2610.000    
N00507           5230.000     5910.000    
N02006           5210.000     4510.000    
N01612           4810.000     2090.000    
N02162           8810.000     4330.000    
N02116           7950.000     4490.000    
N01849           6970.000     3450.000    
N00319           2790.000     4730.000    
N00681           4270.000     4090.000    
N02057           2710.000     3850.000    
N00202           3350.000     3330.000    
N02658           2510.000     3510.000    
N01374           1810.000     2190.000    
N01414           2970.000     4410.000    
N01003           5930.000     5450.000    
N01445           5830.000     4370.000    
N00848           3850.000     6550.000    
N00094           270.000      2110.000    
N01591           6030.000     6710.000    
N00137           5270.000     90.000      
N00182           3790.000     2110.000    
N00493           4730.000     5830.000    
N02654           3210.000     3470.000    
N00986           5790.000     6050.000    
N01544           5390.000     790.000     
N01337           2050.000     5570.000    
N02719           3290.000     3370.000    
N02114           7990.000     5650.000    
N00924           1050.000     2890.000    
N00040           6430.000     3330.000    
N00156           2190.000     3030.000    
N01408           1510.000     2710.000    
N01285           9190.000     5570.000    
N00858           7230.000     5450.000    
N00071           8070.000     2030.000    
N00865           7450.000     6450.000    
N00278           5470.000     3130.000    
N01472           2970.000     1570.000    
N01642           5970.000     150.000     
N01549           7650.000     2790.000    
N01316           1270.000     2650.000    
N01051           930.000      4150.000    
N02000           5210.000     4310.000    
N00891           8150.000     2810.000    
N01750           6970.000     2290.000    
N01358           6270.000     3410.000    
N02843           6110.000     5970.000    
N02588           10190.000    5710.000    
N01205           9210.000     5570.000    
N01045           2330.000     3110.000    
N02172           9890.000     4990.000    
N02437           590.000      2490.000    
N00371           7090.000     570.000     
N01023           510.000      2870.000    
N00031           6970.000     6090.000    
N00254           6130.000     2050.000    
N00791           2410.000     5570.000    
N00450           7330.000     5110.000    
N02651           3170.000     3870.000    
N01124           7050.000     5570.000    
N01918           4150.000     3350.000    
N01759           6130.000     2570.000    
N02285           7130.000     6210.000    
N01308           1250.000     2630.000    
N02148           3310.000     3130.000    
N01812           5750.000     3730.000    
N00944           7450.000     7170.000    
N00437           7990.000     6450.000    
N02376           6990.000     1390.000    
N02594           10250.000    5250.000    
N01689           5790.000     2210.000    
N00266           6190.000     2050.000    
N01396           270.000      1970.000    
N00499           5090.000     5770.000    
N02435           250.000      2410.000    
N00110           2450.000     2650.000    
N02768           7110.000     2770.000    
N00832           7330.000     770.000     
N00539           7450.000     5430.000    
N02830           6630.000     6730.000    
N00361           7830.000     3310.000    
N01121           5510.000     3930.000    
N01465           2130.000     2790.000    
N02443           7350.000     2510.000    
N00545           7430.000     4910.000    
N00536           8790.000     4270.000    
N00036           6350.000     5990.000    
N00585           9930.000     5890.000    
N00315           2570.000     5390.000    
N02097           2550.000     5090.000    
N00694           2790.000     3350.000    
N02132           7930.000     4270.000    
N00438           8010.000     6230.000    
N00329           7310.000     1870.000    
N02538           1350.000     4590.000    
N02712           8010.000     5990.000    
N01573           6210.000     2090.000    
N00154           2090.000     2730.000    
N01938           4710.000     3390.000    
N02163           8810.000     4290.000    
N00684           3270.000     3870.000    
N01541           5330.000     2090.000    
N00680           3130.000     3810.000    
N02293           7890.000     6630.000    
N01963           4950.000     3450.000    
N02541           7430.000     890.000     
N01186           10330.000    5410.000    
N02506           8590.000     6550.000    
N00141           5810.000     50.000      
N01859           7170.000     4150.000    
N00035           6510.000     5990.000    
N02415           8070.000     6410.000    
N01457           8370.000     3310.000    
N00905           5690.000     630.000     
N00692           3210.000     3410.000    
N02485           3470.000     2410.000    
N01341           3730.000     3230.000    
N02836           6590.000     5650.000    
N02553           6030.000     6730.000    
N01406           1350.000     2930.000    
N01641           5130.000     190.000     
N00920           450.000      2810.000    
N02729           9290.000     5010.000    
N02281           7090.000     6550.000    
N01470           2710.000     1850.000    
N01257           4510.000     4130.000    
N01133           7910.000     2930.000    
N00655           5990.000     350.000     
N00708           3130.000     4170.000    
N01648           930.000      2250.000    
N01795           5730.000     4190.000    
N00032           6810.000     6050.000    
N00878           7650.000     2770.000    
N00325           6870.000     2310.000    
N00132           4770.000     290.000     
N00176           2710.000     2370.000    
N00345           7310.000     2510.000    
N02550           6050.000     6750.000    
N01798           5750.000     3950.000    
N01250           7390.000     7110.000    
N01050           1490.000     4230.000    
N01678           8310.000     2830.000    
N01501           6850.000     2270.000    
N02296           7090.000     6830.000    
N00003           250.000      1990.000    
N00992           5910.000     5970.000    
N00957           2590.000     2270.000    
N00394           7630.000     2070.000    
N01877           4650.000     2130.000    
N02270           7110.000     7010.000    
N02371           6950.000     1510.000    
N01284           2250.000     5510.000    
N02816           7370.000     2970.000    
N00101           2150.000     2250.000    
N01047           1690.000     4430.000    
N00271           6350.000     2150.000    
N02351           6070.000     910.000     
N00819           5030.000     2090.000    
N02555           6070.000     6670.000    
N00551           5730.000     5250.000    
N00608           790.000      4190.000    
N01438           6250.000     3710.000    
N02159           8190.000     4250.000    
N01717           6310.000     3030.000    
N01895           5510.000     5110.000    
N02444           7350.000     2610.000    
N00587           9810.000     5750.000    
N00534           9370.000     5010.000    
N00262           6170.000     2270.000    
N01905           4570.000     3330.000    
N01889           5410.000     3450.000    
N01972           4470.000     4150.000    
N01365           2670.000     4990.000    
N02694           1170.000     4390.000    
N00836           7230.000     670.000     
N01995           5210.000     3990.000    
N02623           3150.000     2350.000    
N01398           190.000      2490.000    
N02429           2850.000     3130.000    
N01957           4430.000     4730.000    
N01314           250.000      2430.000    
N01595           9970.000     5990.000    
N02106           2650.000     5090.000    
N02135           7950.000     4410.000    
N00368           7450.000     970.000     
N00923           970.000      2870.000    
N02754           7450.000     3930.000    
N02298           7090.000     6430.000    
N02511           10030.000    5810.000    
N01763           7110.000     2530.000    
N01794           5510.000     4170.000    
N02731           9370.000     5070.000    
N01459           10430.000    6010.000    
N01548           7730.000     2870.000    
N01760           7270.000     2510.000    
N01022           690.000      2890.000    
N00188           3510.000     2130.000    
N00068           1510.000     2190.000    
N00211           6650.000     230.000     
N01344           2690.000     2290.000    
N00227           5550.000     2130.000    
N02524           1230.000     2850.000    
N01259           4370.000     4810.000    
N01381           7070.000     510.000     
N01447           5890.000     4370.000    
N01083           5470.000     1950.000    
N02024           5170.000     5710.000    
N01682           5830.000     3310.000    
N00863           7370.000     6770.000    
N01392           7170.000     630.000     
N01606           7350.000     2290.000    
N01739           6870.000     2750.000    
N00497           5370.000     5910.000    
N00779           1290.000     4230.000    
N00005           1970.000     2190.000    
N01329           7470.000     6170.000    
N00021           6710.000     3390.000    
N02496           5750.000     50.000      
N00773           1550.000     4390.000    
N02717           7370.000     3470.000    
N01295           6410.000     2110.000    
N01013           7490.000     1090.000    
N00530           8890.000     4430.000    
N02673           2270.000     3310.000    
N01742           6890.000     2990.000    
N01754           6910.000     2770.000    
N01504           7370.000     6710.000    
N00775           1790.000     4710.000    
N01279           4590.000     4890.000    
N01713           6170.000     2850.000    
N01924           5050.000     3430.000    
N00302           5790.000     3330.000    
N00411           7470.000     6370.000    
N02192           4410.000     590.000     
N00025           5910.000     6030.000    
N01211           7390.000     6970.000    
N01542           5470.000     1730.000    
N02211           7390.000     3290.000    
N02664           3010.000     3570.000    
N00291           6190.000     3390.000    
N00362           7930.000     3630.000    
N02264           4370.000     5830.000    
N01610           7730.000     1510.000    
N01530           6390.000     5710.000    
N00821           5390.000     2130.000    
N00218           5570.000     2150.000    
N01907           4890.000     3390.000    
N01876           5410.000     2450.000    
N01776           6150.000     2610.000    
N01269           3190.000     2670.000    
N01001           6910.000     6030.000    
N00635           6030.000     50.000      
N00889           7790.000     2830.000    
N02060           2390.000     4490.000    
N02552           6070.000     6730.000    
N02016           5050.000     4850.000    
N02630           4150.000     2110.000    
N00023           7350.000     7070.000    
N00265           6150.000     1890.000    
N02136           7930.000     4430.000    
N02063           2650.000     3970.000    
N00834           7130.000     550.000     
N00606           1230.000     4190.000    
N00828           3410.000     2910.000    
N02018           5870.000     5410.000    
N02044           4790.000     5290.000    
N02262           4470.000     6270.000    
N00699           2210.000     5590.000    
N01634           4730.000     370.000     
N01882           5050.000     2150.000    
N02838           4970.000     6170.000    
N01870           7290.000     3670.000    
N00184           2150.000     2090.000    
N00343           7990.000     3510.000    
N01478           4730.000     1250.000    
N00713           2550.000     5330.000    
N00076           6310.000     6250.000    
N00221           3910.000     2110.000    
N01484           4150.000     2030.000    
N01681           5810.000     2210.000    
N00017           7590.000     2070.000    
N01939           4590.000     3430.000    
N02282           7050.000     6170.000    
N02142           7590.000     3890.000    
N01973           4450.000     4130.000    
N01252           7750.000     5110.000    
N02818           7370.000     2650.000    
N01119           5490.000     3050.000    
N02776           4690.000     4210.000    
N00215           5450.000     2070.000    
N00194           3870.000     2110.000    
N01786           5610.000     2570.000    
N01091           4990.000     6170.000    
N02663           2750.000     3530.000    
N01093           5290.000     6270.000    
N02279           6570.000     6010.000    
N00794           2910.000     2390.000    
N01667           7950.000     5390.000    
N01779           6150.000     2550.000    
N01164           5990.000     50.000      
N00220           4970.000     2110.000    
N00814           4010.000     2090.000    
N01395           270.000      1830.000    
N02503           6930.000     6050.000    
N02826           6250.000     6710.000    
N01474           5170.000     950.000     
N02034           4490.000     4850.000    
N00199           3230.000     3310.000    
N01129           7830.000     2850.000    
N01622           7110.000     890.000     
N01835           6190.000     3890.000    
N01880           5050.000     2370.000    
N02792           7470.000     4330.000    
N01431           6150.000     3410.000    
N00591           10110.000    5550.000    
N00855           7290.000     5630.000    
N00890           7950.000     2830.000    
N01840           6830.000     4190.000    
N00330           8230.000     3310.000    
N00404           6090.000     570.000     
N00555           6910.000     5670.000    
N01454           8250.000     2810.000    
N00806           4510.000     1770.000    
N00327           6850.000     2030.000    
N02462           7290.000     4370.000    
N00249           5490.000     2050.000    
N02813           7350.000     3270.000    
N00222           3710.000     2190.000    
N00882           7630.000     2790.000    
N00253           5130.000     970.000     
N01433           5830.000     3410.000    
N02473           3450.000     2390.000    
N00678           5450.000     3830.000    
N00328           7270.000     2030.000    
N01888           5430.000     3590.000    
N01522           7750.000     1410.000    
N01813           6090.000     4170.000    
N01616           4950.000     290.000     
N01524           9290.000     4910.000    
N02546           6210.000     6250.000    
N00600           2110.000     5130.000    
N01064           4570.000     6670.000    
N00929           330.000      3950.000    
N02669           2530.000     3290.000    
N02528           1710.000     4410.000    
N02316           6870.000     2270.000    
N01363           2670.000     5410.000    
N01132           7910.000     2750.000    
N00185           2250.000     2210.000    
N02318           7610.000     2030.000    
N00070           6950.000     2070.000    
N01142           10130.000    5970.000    
N00287           6930.000     3310.000    
N00308           5790.000     3490.000    
N02734           9390.000     5010.000    
N01311           630.000      2530.000    
N00089           6510.000     270.000     
N00113           2390.000     2270.000    
N01638           5390.000     150.000     
N01821           6230.000     4150.000    
N02461           7390.000     5590.000    
N01362           2630.000     5270.000    
N02389           4210.000     1670.000    
N01511           9830.000     5730.000    
N00574           10290.000    5150.000    
N00631           6030.000     150.000     
N01967           5430.000     3650.000    
N02425           4550.000     3650.000    
N00851           5770.000     6070.000    
N02093           3010.000     5090.000    
N00097           270.000      2070.000    
N00849           5530.000     6010.000    
N00485           5110.000     5750.000    
N02213           7390.000     3570.000    
N00812           4550.000     2050.000    
N00197           4790.000     1210.000    
N01831           6910.000     4310.000    
N01089           1050.000     4210.000    
N00689           5250.000     3650.000    
N01377           6170.000     3130.000    
N01926           3630.000     2930.000    
N01348           2910.000     2370.000    
N01935           4570.000     3430.000    
N01843           6170.000     3990.000    
N02304           7330.000     7030.000    
N00706           2470.000     5530.000    
N02495           5930.000     50.000      
N01698           6390.000     3010.000    
N01936           4570.000     3610.000    
N00280           5570.000     3250.000    
N02653           3170.000     3830.000    
N01287           7970.000     5830.000    
N00098           1870.000     2190.000    
N01730           6810.000     2770.000    
N02178           2950.000     1590.000    
N00109           2330.000     2330.000    
N02705           3390.000     2650.000    
N02707           3370.000     2730.000    
N01818           5610.000     4390.000    
N01823           5530.000     4430.000    
N01450           6870.000     3050.000    
N01651           1470.000     2190.000    
N01117           6630.000     3450.000    
N00870           6870.000     730.000     
N01860           7150.000     3950.000    
N00570           7450.000     6310.000    
N00830           5150.000     3390.000    
N00490           5170.000     5950.000    
N01943           2890.000     2830.000    
N01034           6870.000     3330.000    
N02326           6610.000     630.000     
N02062           2630.000     4050.000    
N00244           5350.000     2110.000    
N00816           4090.000     2110.000    
N02725           8470.000     5050.000    
N00798           3190.000     2690.000    
N00178           3710.000     2170.000    
N02486           3450.000     2610.000    
N01354           1710.000     4710.000    
N02160           8310.000     4250.000    
N02379           6970.000     1410.000    
N01273           3430.000     2490.000    
N00431           7730.000     6350.000    
N00808           4210.000     2030.000    
N02048           4870.000     5170.000    
N02427           210.000      2370.000    
N01267           3490.000     3870.000    
N01409           1690.000     2670.000    
N01954           2550.000     2430.000    
N00500           5290.000     5810.000    
N01666           7970.000     5470.000    
N02675           2330.000     3090.000    
N01729           6670.000     2790.000    
N01765           6970.000     2510.000    
N00357           7970.000     3290.000    
N01874           3890.000     2150.000    
N02682           2410.000     3910.000    
N00823           5350.000     2030.000    
N01288           7970.000     5630.000    
N02248           4270.000     6030.000    
N02091           2690.000     5090.000    
N00157           1850.000     2970.000    
N02170           8910.000     4410.000    
N01334           3890.000     1830.000    
N01770           6410.000     2550.000    
N01668           7950.000     5230.000    
N00879           8290.000     2810.000    
N01330           7450.000     6350.000    
N00006           1890.000     2170.000    
N00063           350.000      2050.000    
N00293           6210.000     3290.000    
N01942           2890.000     2670.000    
N01645           310.000      1970.000    
N00393           7690.000     2110.000    
N02166           9010.000     4290.000    
N02632           9650.000     5030.000    
N00226           4690.000     2070.000    
N00316           2590.000     5230.000    
N00667           8010.000     6610.000    
N00571           7390.000     6270.000    
N01968           5250.000     3670.000    
N00542           7450.000     5410.000    
N02699           5090.000     990.000     
N00802           3190.000     3030.000    
N00679           5130.000     3470.000    
N02497           7330.000     3910.000    
N01930           3690.000     2930.000    
N02650           2950.000     3830.000    
N02470           7410.000     4330.000    
N01931           3350.000     3250.000    
N00633           6550.000     210.000     
N00656           5990.000     410.000     
N00241           5270.000     2170.000    
N01067           5590.000     2570.000    
N00444           7910.000     6330.000    
N02616           7270.000     1070.000    
N02096           2590.000     5090.000    
N00108           2210.000     2430.000    
N00192           3250.000     2290.000    
N00948           6890.000     7210.000    
N00605           1490.000     4290.000    
N00541           7110.000     5530.000    
N00568           7430.000     6510.000    
N02050           3150.000     4090.000    
N00423           7490.000     5110.000    
N01455           8290.000     2770.000    
N02140           7950.000     4710.000    
N01283           1950.000     5570.000    
N02722           9310.000     4990.000    
N00012           830.000      2250.000    
N01553           5510.000     3710.000    
N00597           10010.000    5810.000    
N00778           1670.000     4530.000    
N00638           5890.000     50.000      
N02765           7370.000     2930.000    
N02058           2670.000     4010.000    
N00305           6390.000     3350.000    
N00112           2450.000     2110.000    
N02697           1770.000     3030.000    
N02748           490.000      4010.000    
N01475           5070.000     1010.000    
N01024           930.000      2910.000    
N02793           7990.000     6070.000    
N00245           5550.000     2110.000    
N00696           2150.000     3850.000    
N01783           6170.000     2550.000    
N01058           1850.000     4690.000    
N00589           9870.000     5710.000    
N01923           3770.000     3090.000    
N02777           5630.000     5970.000    
N00057           7410.000     4410.000    
N00041           6590.000     3310.000    
N02507           10070.000    5710.000    
N01702           5970.000     2830.000    
N01272           3410.000     2670.000    
N02542           6070.000     6630.000    
N01636           5210.000     190.000     
N02812           7410.000     3270.000    
N00647           5850.000     130.000     
N02214           4870.000     6490.000    
N01444           6230.000     3990.000    
N02416           290.000      4030.000    
N01513           9670.000     5490.000    
N00104           2550.000     2330.000    
N00983           6430.000     5910.000    
N01033           6810.000     3390.000    
N00997           6410.000     5910.000    
N01947           3350.000     2710.000    
N02199           4170.000     1550.000    
N00136           5150.000     130.000     
N02314           6990.000     2090.000    
N01063           4530.000     6350.000    
N02263           4210.000     6390.000    
N00722           2870.000     4630.000    
N01743           6850.000     2510.000    
N00483           5550.000     5930.000    
N01432           5990.000     3410.000    
N01934           3390.000     2950.000    
N02122           7710.000     5090.000    
N00267           6150.000     2050.000    
N02510           10110.000    5590.000    
N01081           7330.000     1630.000    
N01999           5250.000     3790.000    
N00543           7410.000     5570.000    
N02238           4690.000     6450.000    
N00538           7430.000     5070.000    
N00449           7290.000     5290.000    
N02133           7950.000     5090.000    
N01053           1030.000     4150.000    
N02464           7350.000     4330.000    
N00263           6070.000     1950.000    
N00372           7030.000     510.000     
N01922           5090.000     3450.000    
N00092           270.000      1910.000    
N00813           4170.000     2070.000    
N00151           2390.000     2190.000    
N00603           1950.000     4890.000    
N02566           6630.000     6230.000    
N01481           4250.000     1590.000    
N01982           4410.000     5730.000    
N00334           7370.000     3450.000    
N02589           10350.000    5710.000    
N01865           7150.000     3690.000    
N02590           10150.000    5710.000    
N02258           4430.000     6050.000    
N01949           3350.000     2910.000    
N02565           7870.000     3210.000    
N02672           2290.000     3250.000    
N02174           2650.000     1990.000    
N02092           2910.000     5070.000    
N01336           1910.000     5570.000    
N01516           770.000      2250.000    
N01347           2930.000     2330.000    
N02567           6790.000     6290.000    
N02613           6890.000     3910.000    
N00286           6890.000     3130.000    
N00026           7930.000     3870.000    
N00641           4990.000     230.000     
N01256           4490.000     4150.000    
N01863           7150.000     3890.000    
N01278           2610.000     5230.000    
N02254           4490.000     6270.000    
N02049           3210.000     3930.000    
N00400           6030.000     570.000     
N01076           3710.000     3270.000    
N00196           4970.000     1090.000    
N01724           6650.000     2790.000    
N00208           3130.000     3150.000    
N01941           3430.000     2710.000    
N01596           9830.000     5690.000    
N01898           5470.000     5150.000    
N01677           8270.000     2150.000    
N00399           7830.000     1850.000    
N01469           2450.000     2470.000    
N01355           5450.000     2770.000    
N01271           3910.000     2090.000    
N01946           3350.000     2690.000    
N02688           2110.000     3950.000    
N02424           4570.000     3410.000    
N00086           6810.000     690.000     
N02118           7970.000     4610.000    
N01772           6370.000     2550.000    
N02305           7470.000     7050.000    
N01577           6950.000     2310.000    
N01734           6590.000     2770.000    
N00209           3350.000     3170.000    
N00169           3490.000     2210.000    
N01615           5770.000     150.000     
N01340           3570.000     3190.000    
N01437           6150.000     3710.000    
N00387           7850.000     1750.000    
N01128           8010.000     2830.000    
N00454           7590.000     5090.000    
N00297           6170.000     3510.000    
N02820           4850.000     2250.000    
N00380           7350.000     1830.000    
N02269           7070.000     7110.000    
N01951           3210.000     2530.000    
N01421           6930.000     4310.000    
N01617           4810.000     350.000     
N02499           7370.000     3970.000    
N00887           7210.000     4150.000    
N00335           7370.000     3310.000    
N01917           4310.000     3370.000    
N00710           2950.000     4490.000    
N01317           1230.000     2890.000    
N02519           2610.000     3130.000    
N01292           6330.000     2150.000    
N00988           5490.000     5970.000    
N00290           6190.000     3090.000    
N01100           8130.000     2090.000    
N02723           9190.000     4810.000    
N00505           4850.000     5890.000    
N00623           7710.000     1390.000    
N00377           7870.000     1970.000    
N01103           8290.000     2490.000    
N01631           4790.000     330.000     
N00498           4970.000     5830.000    
N01841           6210.000     4210.000    
N00612           3450.000     5050.000    
N02710           7990.000     5730.000    
N02267           6610.000     6670.000    
N02176           2530.000     2270.000    
N02662           2510.000     3530.000    
N02272           6650.000     6810.000    
N02629           4310.000     2110.000    
N01209           7430.000     4750.000    
N01144           8410.000     6370.000    
N01503           8010.000     6390.000    
N00053           4410.000     4790.000    
N01785           5470.000     2610.000    
N02704           7610.000     3310.000    
N00410           7470.000     6230.000    
N00446           7570.000     6330.000    
N02633           9550.000     5050.000    
N02827           6090.000     6710.000    
N00435           8010.000     6590.000    
N02297           7090.000     6670.000    
N01732           6170.000     2790.000    
N02021           5130.000     5070.000    
N02022           5410.000     5090.000    
N01216           7290.000     7130.000    
N00009           1190.000     2250.000    
N02829           6630.000     6930.000    
N00339           7870.000     3190.000    
N01683           5790.000     2350.000    
N00864           7410.000     6590.000    
N00683           3510.000     3890.000    
N01847           7030.000     4150.000    
N00871           7010.000     810.000     
N01016           1250.000     2590.000    
N01300           6870.000     2050.000    
N00668           8150.000     6370.000    
N01275           3230.000     3550.000    
N01413           3090.000     4230.000    
N00854           7210.000     5430.000    
N00456           6990.000     5670.000    
N02129           7910.000     4310.000    
N02020           5210.000     5050.000    
N01899           5070.000     3410.000    
N01249           5230.000     210.000     
N01825           5530.000     4930.000    
N01328           7370.000     6150.000    
N01561           3770.000     3950.000    
N02668           2790.000     3270.000    
N02681           2470.000     3750.000    
N02311           7370.000     2490.000    
N01691           6890.000     3010.000    
N02737           9430.000     5090.000    
N02586           9130.000     4730.000    
N02484           3410.000     2550.000    
N02718           3370.000     3170.000    
N01944           2710.000     2630.000    
N02245           4190.000     6390.000    
N01564           9770.000     5630.000    
N00440           8030.000     6410.000    
N00784           310.000      4030.000    
N02146           3330.000     3030.000    
N02610           4690.000     1250.000    
N01274           3450.000     2490.000    
N00480           5330.000     5850.000    
N02329           6290.000     570.000     
N01822           6830.000     3710.000    
N01378           7410.000     4710.000    
N01493           6330.000     2110.000    
N02120           8030.000     5070.000    
N01533           9910.000     6050.000    
N00279           5490.000     3110.000    
N00665           8010.000     6750.000    
N02488           7070.000     1430.000    
N00216           5450.000     1970.000    
N00537           8750.000     4190.000    
N01928           3770.000     2190.000    
N00796           2970.000     2370.000    
N00376           8050.000     2010.000    
N00378           7390.000     870.000     
N01630           4950.000     270.000     
N02502           7010.000     5610.000    
N00486           5090.000     5850.000    
N00171           3370.000     2330.000    
N02666           3210.000     3610.000    
N01072           5510.000     5030.000    
N01774           6370.000     2530.000    
N00004           2350.000     2270.000    
N00283           5530.000     3450.000    
N00124           2110.000     2170.000    
N00962           3550.000     2070.000    
N00181           3610.000     2070.000    
N02647           2710.000     3790.000    
N00152           2430.000     2110.000    
N00318           2670.000     4950.000    
N00652           6830.000     370.000     
N02080           2270.000     3350.000    
N01727           6650.000     2570.000    
N00980           7950.000     3850.000    
N00610           470.000      4050.000    
N00876           7170.000     3690.000    
N01425           6270.000     3950.000    
N00614           3290.000     5090.000    
N01367           4110.000     3310.000    
N01697           6390.000     2790.000    
N01162           5950.000     270.000     
N01158           7990.000     6790.000    
N02693           1810.000     4370.000    
N01735           6170.000     3030.000    
N01811           5530.000     3750.000    
N02833           6170.000     5630.000    
N02253           4350.000     6330.000    
N01071           5230.000     4450.000    
N02809           2970.000     3190.000    
N01937           4570.000     3370.000    
N00634           6150.000     70.000      
N01054           1210.000     4150.000    
N00904           5550.000     690.000     
N01850           7150.000     4350.000    
N01537           5750.000     2150.000    
N01547           7530.000     3330.000    
N02680           2450.000     3730.000    
N02171           9010.000     4570.000    
N02409           5510.000     6370.000    
N00163           2350.000     3090.000    
N00639           5850.000     50.000      
N02646           2010.000     4830.000    
N00826           5090.000     2410.000    
N01527           6610.000     5850.000    
N02605           5050.000     1010.000    
N02412           8370.000     6550.000    
N02066           2330.000     4570.000    
N00964           3370.000     2250.000    
N01462           2330.000     3070.000    
N01709           5810.000     3050.000    
N01753           7110.000     2310.000    
N00206           3410.000     3190.000    
N02287           7070.000     6190.000    
N02072           2710.000     3730.000    
N02446           7350.000     2730.000    
N00674           6150.000     2310.000    
N01602           730.000      4290.000    
N01294           6610.000     2110.000    
N02821           4990.000     2330.000    
N01068           4530.000     5750.000    
N00225           4270.000     2050.000    
N02242           4210.000     6410.000    
N02622           3230.000     2370.000    
N02716           7150.000     3390.000    
N01477           4630.000     1290.000    
N02701           6970.000     3370.000    
N00453           7510.000     5110.000    
N01030           6890.000     3370.000    
N00131           4690.000     330.000     
N00338           7390.000     3890.000    
N00412           5530.000     4370.000    
N00949           6950.000     7150.000    
N02232           4710.000     6430.000    
N00451           7410.000     5090.000    
N01471           2890.000     1670.000    
N01579           7910.000     3870.000    
N01853           6910.000     3930.000    
N01531           6230.000     5710.000    
N01346           2630.000     2290.000    
N02036           4770.000     5030.000    
N00096           290.000      1770.000    
N00257           6210.000     2130.000    
N02442           7370.000     2510.000    
N00391           7990.000     2150.000    
N01826           5530.000     4310.000    
N01752           7090.000     2130.000    
N01566           9910.000     5730.000    
N00167           3810.000     1890.000    
N00702           2950.000     4410.000    
N02514           4710.000     5870.000    
N01883           4890.000     2130.000    
N00155           1750.000     2970.000    
N01711           6190.000     2990.000    
N02689           1710.000     4390.000    
N00629           6410.000     210.000     
N00532           9250.000     4850.000    
N02612           6890.000     3970.000    
N01607           7250.000     2190.000    
N00033           6770.000     6010.000    
N00133           4850.000     250.000     
N02277           6610.000     6130.000    
N01084           5470.000     2310.000    
N00074           5050.000     6150.000    
N01866           7150.000     3870.000    
N02513           4750.000     5870.000    
N01240           4470.000     6250.000    
N01453           6070.000     3310.000    
N00611           330.000      3990.000    
N01639           5650.000     130.000     
N00396           7770.000     2150.000    
N00801           3110.000     3010.000    
N02645           2690.000     3850.000    
N02352           6030.000     630.000     
N02413           8430.000     6430.000    
N02798           9450.000     5210.000    
N02164           8850.000     4370.000    
N01659           3510.000     2330.000    
N02810           6170.000     3090.000    
N01009           5690.000     5270.000    
N01658           3410.000     3230.000    
N01514           1090.000     2290.000    
N01015           1270.000     2590.000    
N02548           6090.000     6510.000    
N00414           5670.000     4390.000    
N02576           4970.000     750.000     
N00496           5210.000     5890.000    
N02108           2650.000     5050.000    
N02676           2470.000     3670.000    
N00434           7370.000     6290.000    
N02655           2890.000     3790.000    
N01747           6830.000     2250.000    
N00670           70.000       3890.000    
N00256           6090.000     2090.000    
N00340           7910.000     3050.000    
N01626           7330.000     1250.000    
N01552           5570.000     3570.000    
N02052           4550.000     3670.000    
N01655           3190.000     3290.000    
N01805           5850.000     3930.000    
N01581           5490.000     5090.000    
N02563           1270.000     2950.000    
N02392           4370.000     1830.000    
N01384           7110.000     550.000     
N02635           9690.000     5030.000    
N01333           3730.000     1910.000    
N02740           9110.000     5050.000    
N02665           2750.000     3550.000    
N02426           190.000      2450.000    
N02278           6590.000     6010.000    
N00292           6190.000     3590.000    
N00649           6090.000     70.000      
N02603           7370.000     2550.000    
N01814           5870.000     4210.000    
N00224           4110.000     2070.000    
N00782           710.000      4170.000    
N01837           6230.000     4190.000    
N00275           5470.000     3290.000    
N00350           7910.000     3430.000    
N01619           6010.000     510.000     
N02540           7310.000     830.000     
N01296           6450.000     2130.000    
N01497           8110.000     2050.000    
N02625           4650.000     2090.000    
N00403           7090.000     870.000     
N00501           5210.000     5790.000    
N00205           2990.000     3150.000    
N01802           5850.000     3730.000    
N02801           7410.000     3470.000    
N00276           5410.000     3370.000    
N01315           1310.000     2610.000    
N02168           8810.000     4270.000    
N02474           3470.000     2250.000    
N01332           1930.000     5550.000    
N00392           7870.000     2350.000    
N02367           7010.000     1190.000    
N02463           6990.000     4370.000    
N01282           1830.000     4950.000    
N00872           6710.000     670.000     
N00174           3590.000     2250.000    
N02181           3010.000     1590.000    
N00809           4290.000     2030.000    
N01062           4170.000     6410.000    
N01551           5570.000     3410.000    
N00803           2850.000     3090.000    
N02076           2470.000     3710.000    
N01851           7150.000     4170.000    
N02056           2810.000     3170.000    
N02104           2590.000     5150.000    
N01032           6870.000     3630.000    
N00055           7410.000     5010.000    
N01080           7310.000     1410.000    
N00130           4610.000     370.000     
N01056           1490.000     4270.000    
N02301           7110.000     6850.000    
N02494           5190.000     930.000     
N00255           6050.000     2010.000    
N01307           1210.000     2870.000    
N02614           6850.000     3670.000    
N01519           8150.000     3310.000    
N01757           5810.000     2570.000    
N01669           7970.000     5370.000    
N02175           2590.000     2130.000    
N01952           3190.000     2390.000    
N00831           5210.000     3430.000    
N00717           2610.000     5030.000    
N02841           5490.000     6330.000    
N02126           7930.000     4790.000    
N00894           6350.000     1110.000    
N01704           5550.000     2850.000    
N00191           3310.000     2310.000    
N01318           1270.000     2310.000    
N00514           4510.000     5850.000    
N00314           1970.000     5570.000    
N00648           6250.000     90.000      
N00088           6670.000     350.000     
N00116           2170.000     2910.000    
N01661           4110.000     1690.000    
N02547           6530.000     6250.000    
N00381           7370.000     1990.000    
N01319           1290.000     2590.000    
N01706           5830.000     2810.000    
N00479           5270.000     5670.000    
N00686           3530.000     3890.000    
N00250           5470.000     2070.000    
N00429           7950.000     6350.000    
N00955           7750.000     3890.000    
N01637           5550.000     130.000     
N00941           4550.000     1210.000    
N02290           7030.000     6670.000    
N00165           1390.000     2970.000    
N01265           4930.000     5090.000    
N01916           3730.000     3290.000    
N00235           6270.000     110.000     
N00661           2610.000     2030.000    
N01623           7110.000     870.000     
N01839           6670.000     4150.000    
N01911           3490.000     3250.000    
N02448           8850.000     5070.000    
N02025           4590.000     4950.000    
N02639           2770.000     3790.000    
N02428           8310.000     3330.000    
N02690           1870.000     4290.000    
N00777           1450.000     4290.000    
N01366           4030.000     3270.000    
N02713           7390.000     3310.000    
N01881           5310.000     2490.000    
N02472           7870.000     4270.000    
N01436           6210.000     3650.000    
N00084           6650.000     630.000     
N02815           6970.000     3010.000    
N00720           2750.000     4790.000    
N02504           7130.000     6150.000    
N01029           7230.000     2310.000    
N00549           7390.000     5330.000    
N01460           2250.000     3050.000    
N02742           9170.000     4950.000    
N02071           2650.000     3770.000    
N01796           5550.000     4010.000    
N00489           5450.000     5170.000    
N01908           4090.000     3270.000    
N02191           4710.000     370.000     
N01044           1150.000     3150.000    
N02703           7450.000     3310.000    
N00590           10030.000    5710.000    
N02618           7030.000     830.000     
N01461           2470.000     3070.000    
N00445           8150.000     6350.000    
N01998           5210.000     3910.000    
N01498           7910.000     2250.000    
N00106           2410.000     2390.000    
N02107           2630.000     5110.000    
N00075           5170.000     6190.000    
N00409           7570.000     6310.000    
N00718           2670.000     4890.000    
N00212           6750.000     310.000     
N01393           250.000      2130.000    
N00246           5470.000     2210.000    
N02083           8290.000     2870.000    
N00353           7990.000     3150.000    
N01386           2830.000     1630.000    
N02570           7070.000     6430.000    
N00800           2850.000     2990.000    
N00452           7430.000     5010.000    
N01304           9370.000     5330.000    
N01007           7110.000     6110.000    
N00817           3930.000     2130.000    
N02533           1370.000     4250.000    
N00433           7430.000     6590.000    
N00484           5150.000     5850.000    
N01500           6870.000     2450.000    
N00300           6010.000     3390.000    
N01894           5530.000     4350.000    
N00617           2050.000     5070.000    
N02271           6610.000     6690.000    
N01388           2650.000     1790.000    
N01987           5070.000     4710.000    
N00525           4350.000     5770.000    
N02445           7370.000     2750.000    
N00358           8130.000     3310.000    
N02779           5470.000     5990.000    
N01621           8270.000     3330.000    
N02005           5070.000     4550.000    
N00258           6170.000     2290.000    
N01066           5470.000     2530.000    
N01443           6810.000     3910.000    
N00787           7110.000     810.000     
N00422           7070.000     850.000     
N00415           6910.000     4390.000    
N01494           6890.000     1850.000    
N00811           4370.000     2050.000    
N02766           7350.000     2770.000    
N01977           4770.000     5330.000    
N01534           9870.000     5870.000    
N00285           5610.000     2810.000    
N01737           6670.000     3010.000    
N01771           6650.000     2530.000    
N01903           4550.000     3370.000    
N01476           4630.000     1250.000    
N00348           7910.000     3150.000    
N02780           5130.000     6050.000    
N02256           4090.000     5950.000    
N00402           6250.000     550.000     
N00724           1270.000     2530.000    
N00829           5450.000     2890.000    
N02019           5730.000     5270.000    
N00272           5510.000     3730.000    
N01078           4530.000     3390.000    
N01075           5530.000     5030.000    
N02231           4670.000     6430.000    
N00298           5670.000     3390.000    
N00430           7930.000     6470.000    
N00607           990.000      4190.000    
N01932           3290.000     3390.000    
N00952           6630.000     7030.000    
N01028           7350.000     2330.000    
N01512           9550.000     5310.000    
N02310           7130.000     7010.000    
N01608           7170.000     2090.000    
N02471           7890.000     4290.000    
N00458           6690.000     5690.000    
N02696           2890.000     3350.000    
N02372           6890.000     1830.000    
N01127           7890.000     2930.000    
N01055           1350.000     4190.000    
N01277           2630.000     5030.000    
N02286           7090.000     6290.000    
N00859           6450.000     6010.000    
N01060           970.000      4190.000    
N00007           1710.000     2190.000    
N00947           6790.000     7250.000    
N00512           4970.000     5870.000    
N02728           9910.000     4990.000    
N02796           3170.000     2330.000    
N02059           2570.000     4170.000    
N00296           6170.000     3150.000    
N01327           7230.000     6170.000    
N02082           8290.000     2990.000    
N00643           5290.000     150.000     
N00189           3610.000     2010.000    
N02835           6410.000     5690.000    
N01495           6870.000     2030.000    
N02251           4110.000     5970.000    
N02144           7990.000     3890.000    
N00014           7770.000     2050.000    
N00252           5490.000     2230.000    
N01535           10150.000    5490.000    
N00820           5210.000     2110.000    
N02543           6050.000     6290.000    
N02727           9690.000     5010.000    
N01793           5510.000     3970.000    
N02620           7350.000     2550.000    
N01618           5970.000     590.000     
N00974           3350.000     5070.000    
N01082           7350.000     1730.000    
N00695           1670.000     4450.000    
N00385           7790.000     2010.000    
N02241           4670.000     6450.000    
N02317           7450.000     2030.000    
N02617           7050.000     890.000     

[REPORT]
INPUT NO
CONTROLS NO
NODES ALL
LINKS ALL
