[TITLE]
Gravity-consistent road-derived conceptual drainage network

[OPTIONS]
FLOW_UNITS           CMS
FLOW_ROUTING         DYNWAVE
START_DATE           01/01/2026
START_TIME           00:00:00
REPORT_START_DATE    01/01/2026
REPORT_START_TIME    00:00:00
END_DATE             01/01/2026
END_TIME             06:00:00
REPORT_STEP          00:05:00
WET_STEP             00:00:30
DRY_STEP             00:05:00
ROUTING_STEP         0:00:01.00
ALLOW_PONDING        YES
INERTIAL_DAMPING     PARTIAL
VARIABLE_STEP        0.25
MINIMUM_STEP         0.05
LENGTHENING_STEP     5.0
NORMAL_FLOW_LIMITED  BOTH
FORCE_MAIN_EQUATION  H-W
SURCHARGE_METHOD     SLOT
MAX_TRIALS           50
HEAD_TOLERANCE       0.0015
THREADS              1

[EVAPORATION]
CONSTANT 0.0
DRY_ONLY NO

[JUNCTIONS]
N00247           4.6457       1.3487     0 0 20
N02135           6.4026       6.2335     0 0 20
N01348           3.2507       2.1836     0 0 20
N00700           19.6032      28.8230    0 0 20
N00354           3.8746       3.9673     0 0 20
N00064           7.0648       2.3977     0 0 20
N00487           8.4075       8.3523     0 0 20
N02019           8.2543       14.2439    0 0 20
N02821           4.8120       11.3667    0 0 20
N01989           7.9390       7.7733     0 0 20
N01121           5.2769       4.6767     0 0 20
N01787           4.4624       3.3230     0 0 20
N02828           17.1207      17.3773    0 0 20
N00056           6.4461       9.4654     0 0 20
N00889           4.1410       1.1954     0 0 20
N02734           6.3078       14.6001    0 0 20
N01998           5.2940       6.2638     0 0 20
N00183           3.2580       5.1171     0 0 20
N01721           3.5729       10.4447    0 0 20
N02804           6.4080       15.6258    0 0 20
N00802           6.5423       2.1848     0 0 20
N02815           3.5856       2.7342     0 0 20
N02655           6.0413       5.6606     0 0 20
N01399           13.6692      13.3439    0 0 20
N00533           6.4089       11.7322    0 0 20
N01838           5.2866       6.6470     0 0 20
N01387           2.7519       2.1898     0 0 20
N02570           16.2063      6.2529     0 0 20
N00173           3.3732       1.7534     0 0 20
N01928           4.2813       0.8770     0 0 20
N02532           15.8638      24.9706    0 0 20
N00380           3.2049       1.7590     0 0 20
N01855           4.6260       3.6166     0 0 20
N00298           4.9959       2.0631     0 0 20
N02142           4.3360       3.5584     0 0 20
N00554           16.0538      8.3984     0 0 20
N00325           3.0253       3.2807     0 0 20
N01024           13.4449      15.5891    0 0 20
N01073           7.9709       6.2775     0 0 20
N02818           3.3441       2.3673     0 0 20
N00458           16.0585      8.3906     0 0 20
N00780           16.1738      1.3553     0 0 20
N02307           14.9716      30.0727    0 0 20
N00227           4.6175       2.5640     0 0 20
N00197           2.7257       2.4662     0 0 20
N02127           6.0910       5.7550     0 0 20
N00225           3.9998       7.3549     0 0 20
N01576           4.5218       1.9630     0 0 20
N01922           5.1155       5.4086     0 0 20
N00365           3.8530       2.5838     0 0 20
N02803           13.9538      7.0686     0 0 20
N01003           8.3600       20.9232    0 0 20
N01892           8.0031       8.2224     0 0 20
N02365           2.6011       2.7088     0 0 20
N00850           17.3408      2.0857     0 0 20
N02102           19.3081      12.8595    0 0 20
N00001           7.0919       2.4696     0 0 20
N01112           5.9126       2.1149     0 0 20
N01857           4.3683       2.9583     0 0 20
N01254           6.1210       5.9227     0 0 20
N00686           5.9425       8.9309     0 0 20
N01798           5.7870       3.2734     0 0 20
N02253           15.4434      6.3329     0 0 20
N00705           19.7113      19.6254    0 0 20
N02383           3.2316       1.1537     0 0 20
N00071           3.9629       1.2833     0 0 20
N01648           7.2624       1.9321     0 0 20
N02637           5.8907       10.0134    0 0 20
N00681           5.5500       16.6150    0 0 20
N02326           3.6672       0.8766     0 0 20
N01637           1.4937       2.3785     0 0 20
N02639           5.9128       7.4282     0 0 20
N00281           4.9559       2.1031     0 0 20
N02544           17.2731      3.0333     0 0 20
N02659           6.2350       5.4803     0 0 20
N01464           3.3784       4.8217     0 0 20
N01632           2.9085       2.1314     0 0 20
N00338           5.8661       2.4986     0 0 20
N02023           8.2261       13.8844    0 0 20
N00592           14.1058      3.1250     0 0 20
N01052           15.6807      16.9904    0 0 20
N02372           2.7841       2.4937     0 0 20
N01628           3.0527       2.2902     0 0 20
N00988           17.6155      0.8918     0 0 20
N00485           16.2632      0.8142     0 0 20
N01307           13.5278      13.3966    0 0 20
N01868           5.6804       2.0000     0 0 20
N02701           4.4239       3.0673     0 0 20
N01381           1.1685       2.6399     0 0 20
N01734           3.3625       3.1911     0 0 20
N00655           1.3633       3.2102     0 0 20
N00652           1.0264       3.2047     0 0 20
N01511           13.8489      7.0984     0 0 20
N01792           5.8916       2.2551     0 0 20
N00531           6.4931       11.0192    0 0 20
N02530           15.9403      16.9736    0 0 20
N00287           4.4599       3.2596     0 0 20
N00132           3.2816       2.8841     0 0 20
N01211           15.0931      27.7874    0 0 20
N01425           6.1540       5.1717     0 0 20
N00928           15.0246      22.1809    0 0 20
N00345           3.2641       3.0714     0 0 20
N01501           3.0080       8.8410     0 0 20
N00985           17.3724      1.9859     0 0 20
N00798           3.5510       2.0430     0 0 20
N01999           5.2308       4.1844     0 0 20
N02688           16.3153      3.0925     0 0 20
N00070           2.9165       3.1649     0 0 20
N02604           4.0322       3.7633     0 0 20
N00876           5.7027       2.7005     0 0 20
N02316           3.0149       5.6897     0 0 20
N00914           13.3669      1.6838     0 0 20
N01614           1.2962       2.7230     0 0 20
N02547           15.9706      5.0079     0 0 20
N00006           7.7463       0.5552     0 0 20
N00990           15.9207      9.3741     0 0 20
N02518           4.7056       1.7932     0 0 20
N02095           19.1260      9.1881     0 0 20
N00110           3.2633       4.9495     0 0 20
N01436           6.0553       2.7214     0 0 20
N01609           4.1824       1.1791     0 0 20
N01854           5.9152       3.3009     0 0 20
N02125           6.2394       10.5526    0 0 20
N01276           19.4667      4.5653     0 0 20
N02332           3.8639       25.1277    0 0 20
N00103           3.2875       2.3973     0 0 20
N01713           3.6213       2.9229     0 0 20
N00288           4.4651       3.3122     0 0 20
N01903           8.8244       13.8514    0 0 20
N01023           13.1715      17.3447    0 0 20
N00445           15.1327      13.6313    0 0 20
N00892           4.0371       6.5330     0 0 20
N01124           6.6895       10.6858    0 0 20
N02583           6.3943       15.3510    0 0 20
N00361           3.9912       6.2128     0 0 20
N02278           15.8707      7.4884     0 0 20
N00923           13.4176      15.3279    0 0 20
N02535           15.8438      22.9817    0 0 20
N00875           5.8145       2.9537     0 0 20
N01463           3.3333       7.0006     0 0 20
N01653           3.3680       1.7586     0 0 20
N01753           3.0987       2.8407     0 0 20
N01294           3.0635       3.2017     0 0 20
N01580           8.2659       8.8343     0 0 20
N01681           3.4963       2.9292     0 0 20
N02633           6.3898       13.1629    0 0 20
N00276           4.9395       4.1948     0 0 20
N00404           1.4882       3.1553     0 0 20
N00266           3.2711       2.7549     0 0 20
N00573           13.5249      6.8513     0 0 20
N01497           3.9412       1.3401     0 0 20
N02313           3.1569       7.5546     0 0 20
N02622           3.4126       1.7140     0 0 20
N00228           3.4764       2.4474     0 0 20
N00608           15.3907      33.9974    0 0 20
N01963           9.0561       2.4318     0 0 20
N01712           3.4925       2.9922     0 0 20
N00869           3.2763       2.5736     0 0 20
N00391           4.2258       2.3337     0 0 20
N01026           3.3160       9.2284     0 0 20
N01924           5.1333       5.6570     0 0 20
N00175           3.3928       1.7338     0 0 20
N00118           3.5356       12.4858    0 0 20
N01374           7.7050       0.9145     0 0 20
N00323           6.1351       5.1702     0 0 20
N02080           3.7159       9.6109     0 0 20
N02345           1.6451       3.5491     0 0 20
N02017           8.1533       6.4939     0 0 20
N00491           16.3296      1.4663     0 0 20
N01312           3.8264       17.1663    0 0 20
N01119           4.7746       2.2662     0 0 20
N01951           3.4703       1.6563     0 0 20
N00339           4.0030       2.5308     0 0 20
N02304           15.1015      29.9447    0 0 20
N00452           6.3774       8.2525     0 0 20
N02246           15.6095      8.6971     0 0 20
N01295           3.1464       4.8263     0 0 20
N02740           6.1617       15.3965    0 0 20
N01253           6.2812       8.6537     0 0 20
N00980           4.1560       2.3209     0 0 20
N01865           5.6945       3.6023     0 0 20
N01988           7.9166       6.7710     0 0 20
N01490           3.1121       3.1982     0 0 20
N01328           15.4257      0.9439     0 0 20
N00425           6.5176       8.1318     0 0 20
N01281           19.8505      27.6986    0 0 20
N00277           4.9678       4.3075     0 0 20
N02769           4.3496       1.4500     0 0 20
N00628           4.1780       5.3701     0 0 20
N01878           4.1752       17.5871    0 0 20
N02533           15.6903      17.6063    0 0 20
N01899           5.1192       6.7291     0 0 20
N00219           4.5357       2.7092     0 0 20
N00216           4.6252       5.9604     0 0 20
N01687           4.3477       5.0627     0 0 20
N01133           4.0670       6.5918     0 0 20
N02061           5.6353       16.6486    0 0 20
N02025           8.4695       12.3655    0 0 20
N00147           3.4827       10.1494    0 0 20
N00152           2.9897       3.0283     0 0 20
N00349           3.9705       5.0445     0 0 20
N02468           6.3782       3.6598     0 0 20
N02312           3.1589       6.7799     0 0 20
N00643           1.6204       2.2518     0 0 20
N01550           6.3293       6.0662     0 0 20
N00745           5.1806       9.2182     0 0 20
N02271           16.7347      6.6785     0 0 20
N00196           2.8339       1.4636     0 0 20
N01718           3.4725       4.0588     0 0 20
N00989           16.3830      2.1390     0 0 20
N01755           3.1400       3.3550     0 0 20
N01367           8.6036       6.2452     0 0 20
N01563           13.8581      7.4964     0 0 20
N02371           2.6211       2.6376     0 0 20
N01482           4.5094       0.6172     0 0 20
N01895           8.1015       9.8176     0 0 20
N02085           3.5645       0.9539     0 0 20
N02067           5.4960       20.1431    0 0 20
N01541           4.5394       1.9084     0 0 20
N01355           4.6692       1.9008     0 0 20
N01407           13.5462      13.8076    0 0 20
N00278           4.8158       4.4548     0 0 20
N00800           6.3190       1.8236     0 0 20
N01733           3.4625       3.2172     0 0 20
N01817           5.9758       3.6673     0 0 20
N01480           3.8716       3.5366     0 0 20
N01298           3.1840       3.6926     0 0 20
N02723           6.4115       11.7438    0 0 20
N02663           6.0333       5.8228     0 0 20
N01456           3.6303       0.8880     0 0 20
N00568           15.3415      10.1730    0 0 20
N02310           15.5873      31.1617    0 0 20
N01255           6.0954       10.9892    0 0 20
N00104           3.0912       2.1076     0 0 20
N02614           4.6123       3.5088     0 0 20
N00539           6.6476       8.9208     0 0 20
N01206           5.6412       0.5000     0 0 20
N00412           7.7548       18.3831    0 0 20
N01060           15.4846      25.7880    0 0 20
N00321           6.2147       8.1160     0 0 20
N01347           3.2560       2.2431     0 0 20
N01549           4.2334       1.0048     0 0 20
N00318           19.3363      8.0230     0 0 20
N00678           5.1709       3.4552     0 0 20
N02059           5.6936       13.1813    0 0 20
N01089           15.5247      24.1464    0 0 20
N02628           4.1213       13.0747    0 0 20
N00650           0.9630       2.9972     0 0 20
N02675           3.5861       8.6074     0 0 20
N01636           1.6651       2.3789     0 0 20
N02463           6.1382       8.0683     0 0 20
N01091           16.3700      3.9751     0 0 20
N01082           3.2495       1.5690     0 0 20
N00711           19.6667      24.1456    0 0 20
N02258           15.8091      3.0403     0 0 20
N02259           15.7185      5.2152     0 0 20
N00797           3.6416       2.8851     0 0 20
N00142           3.3476       6.4482     0 0 20
N02782           16.0888      4.6450     0 0 20
N02542           17.0301      10.2491    0 0 20
N02148           6.4694       1.3642     0 0 20
N01516           7.1824       2.3495     0 0 20
N02314           2.9388       3.4622     0 0 20
N00649           1.2050       3.0318     0 0 20
N02634           6.3388       13.4029    0 0 20
N01299           2.9611       2.7155     0 0 20
N02439           7.6846       10.5087    0 0 20
N01257           5.6722       19.4179    0 0 20
N00016           2.9153       3.1130     0 0 20
N00302           5.0630       1.9778     0 0 20
N02541           1.4256       6.7106     0 0 20
N01453           5.2159       2.4851     0 0 20
N01414           19.6456      1.4759     0 0 20
N02111           6.1916       6.4487     0 0 20
N01308           7.6294       9.7972     0 0 20
N01025           3.3064       11.6132    0 0 20
N01591           17.0253      28.9301    0 0 20
N00606           15.6131      19.1190    0 0 20
N02546           16.1306      7.2580     0 0 20
N00602           19.6477      17.1913    0 0 20
N01019           13.2500      22.7513    0 0 20
N00964           4.4647       0.6619     0 0 20
N00483           17.5795      0.6521     0 0 20
N02819           4.3408       1.4340     0 0 20
N00249           4.6017       1.1292     0 0 20
N00310           5.2159       3.1138     0 0 20
N02330           1.5082       3.1353     0 0 20
N01890           8.0714       19.7638    0 0 20
N01070           7.9699       4.3595     0 0 20
N02471           6.4681       0.5141     0 0 20
N01818           7.7954       32.6858    0 0 20
N00597           13.7965      9.9265     0 0 20
N02702           4.4380       2.9223     0 0 20
N02678           6.0333       5.7370     0 0 20
N00575           15.3470      30.2312    0 0 20
N00778           15.9076      17.5211    0 0 20
N00848           15.7374      22.0596    0 0 20
N00610           15.2156      28.6681    0 0 20
N01634           3.2540       1.3322     0 0 20
N00437           15.0593      16.6347    0 0 20
N01519           3.8299       1.5155     0 0 20
N02687           3.9108       11.6775    0 0 20
N01058           19.7953      11.2848    0 0 20
N01766           3.4472       2.6429     0 0 20
N02244           15.6742      10.7714    0 0 20
N00004           3.0792       2.6529     0 0 20
N01767           3.1353       3.4511     0 0 20
N02446           4.3696       1.2607     0 0 20
N01250           15.0799      34.3872    0 0 20
N02112           6.2716       6.1238     0 0 20
N02846           4.2076       1.0307     0 0 20
N02016           8.1875       6.6573     0 0 20
N00630           1.1349       3.0433     0 0 20
N00177           3.0924       2.5113     0 0 20
N02212           4.2473       3.6184     0 0 20
N02092           19.1460      9.0099     0 0 20
N00363           3.9154       4.5054     0 0 20
N01819           6.1234       6.2726     0 0 20
N02812           4.2095       2.8575     0 0 20
N01544           3.0890       2.0226     0 0 20
N01624           3.3122       1.2294     0 0 20
N02485           4.4775       0.6491     0 0 20
N00033           15.9029      8.0048     0 0 20
N01481           3.7497       3.3984     0 0 20
N02830           16.7124      6.8874     0 0 20
N01844           6.1717       5.2408     0 0 20
N02129           6.4550       0.5272     0 0 20
N00782           15.3564      29.3702    0 0 20
N01494           2.7941       2.4838     0 0 20
N02465           6.6376       8.9587     0 0 20
N00832           1.3475       2.5418     0 0 20
N00246           4.5857       4.2491     0 0 20
N02653           6.1267       6.5099     0 0 20
N02370           2.5301       2.1953     0 0 20
N01303           6.4219       14.6609    0 0 20
N01081           2.9744       2.0000     0 0 20
N00994           17.5646      0.5000     0 0 20
N00926           13.3352      3.4952     0 0 20
N01920           8.6294       8.3966     0 0 20
N01515           7.2433       1.9513     0 0 20
N01115           6.2353       2.1222     0 0 20
N02279           15.8794      6.6484     0 0 20
N02416           15.1642      24.5796    0 0 20
N00787           3.4142       0.8862     0 0 20
N00351           3.9534       3.2295     0 0 20
N00670           15.0138      22.7701    0 0 20
N01051           15.4570      26.6810    0 0 20
N02545           17.2936      3.1438     0 0 20
N00770           14.1341      3.4848     0 0 20
N00313           19.5724      29.7968    0 0 20
N00406           3.2250       1.7757     0 0 20
N00025           17.3924      2.0193     0 0 20
N02408           17.4742      5.9110     0 0 20
N01706           4.4959       1.9889     0 0 20
N00178           4.2901       0.8365     0 0 20
N00366           3.9311       2.0674     0 0 20
N01395           3.4615       2.0386     0 0 20
N00496           16.3053      0.6093     0 0 20
N02706           4.6509       2.5068     0 0 20
N00492           16.3294      0.5000     0 0 20
N02827           16.9953      14.1079    0 0 20
N01510           13.9114      7.2589     0 0 20
N00261           3.2758       8.5651     0 0 20
N02413           15.2654      32.1032    0 0 20
N02164           5.3114       7.0265     0 0 20
N00223           4.3976       1.0282     0 0 20
N01642           1.2850       3.3069     0 0 20
N02670           6.1332       3.9598     0 0 20
N00806           3.9806       3.0532     0 0 20
N02149           4.7781       2.9995     0 0 20
N00927           14.9822      21.0958    0 0 20
N01046           15.7951      14.1952    0 0 20
N00488           8.1790       9.6403     0 0 20
N02006           7.9382       4.2759     0 0 20
N01800           5.7458       4.5094     0 0 20
N02679           6.0210       8.9831     0 0 20
N00388           4.0170       2.2361     0 0 20
N00441           15.2227      9.5067     0 0 20
N01504           15.2380      16.3304    0 0 20
N01832           6.0151       5.4222     0 0 20
N00904           3.1837       1.7529     0 0 20
N01163           1.3233       2.9234     0 0 20
N00194           4.2023       3.5893     0 0 20
N02009           8.2879       4.0860     0 0 20
N00834           1.2018       3.0347     0 0 20
N02531           15.8738      25.0607    0 0 20
N02814           4.3152       2.2497     0 0 20
N00176           3.1687       1.8618     0 0 20
N01214           14.6494      12.5378    0 0 20
N01272           4.6109       1.1614     0 0 20
N00358           3.8399       2.5668     0 0 20
N00887           5.9450       3.9299     0 0 20
N00979           4.0789       3.1082     0 0 20
N02820           4.8926       10.3881    0 0 20
N01442           6.2162       4.7927     0 0 20
N00088           0.9747       3.5145     0 0 20
N01016           7.6094       9.0551     0 0 20
N01723           3.5425       3.3783     0 0 20
N01127           4.0686       8.6776     0 0 20
N02755           7.7419       6.5384     0 0 20
N01459           14.2846      4.4755     0 0 20
N00934           1.0554       3.1806     0 0 20
N02121           5.8591       8.2342     0 0 20
N01627           3.4230       1.2022     0 0 20
N00505           16.1780      1.2566     0 0 20
N01668           6.1634       6.7102     0 0 20
N02163           5.3561       7.6062     0 0 20
N00343           3.9535       2.0451     0 0 20
N00724           7.5778       7.5589     0 0 20
N01916           8.4083       5.0918     0 0 20
N00330           3.7899       1.5588     0 0 20
N01645           3.4576       4.4592     0 0 20
N01304           6.4443       14.5107    0 0 20
N00704           6.2647       11.9056    0 0 20
N00646           1.4120       2.4601     0 0 20
N00174           4.3762       0.7504     0 0 20
N00490           16.2978      0.9955     0 0 20
N02488           2.6088       2.4402     0 0 20
N02355           1.6825       3.0757     0 0 20
N02103           19.3381      11.7456    0 0 20
N01943           6.4015       1.1581     0 0 20
N01341           8.3783       5.0991     0 0 20
N01996           5.2409       4.2984     0 0 20
N00820           4.4470       4.3191     0 0 20
N00791           19.5584      26.5078    0 0 20
N01072           8.0615       7.1136     0 0 20
N00793           3.3636       1.7630     0 0 20
N01700           4.4808       2.4621     0 0 20
N01040           19.2988      13.6149    0 0 20
N00635           1.2362       2.8251     0 0 20
N01271           4.1800       1.5190     0 0 20
N00443           15.1866      6.4271     0 0 20
N02661           6.1232       4.2422     0 0 20
N00830           5.0845       5.8523     0 0 20
N00148           3.3386       5.7437     0 0 20
N00552           8.3400       20.2123    0 0 20
N02700           4.1837       2.6080     0 0 20
N00565           5.4397       10.5780    0 0 20
N00206           6.4718       2.0000     0 0 20
N01488           3.2082       1.6103     0 0 20
N02680           6.0233       9.8334     0 0 20
N00777           15.7351      14.9151    0 0 20
N01699           3.4884       2.6654     0 0 20
N02605           2.8861       1.4114     0 0 20
N02156           5.4597       7.2765     0 0 20
N01923           8.3055       4.2162     0 0 20
N02557           17.2812      9.4185     0 0 20
N01386           2.6738       1.8960     0 0 20
N00633           0.9640       3.6009     0 0 20
N00826           4.7476       11.2386    0 0 20
N00316           19.3425      13.7119    0 0 20
N00614           18.9551      9.9950     0 0 20
N02213           4.3105       3.5534     0 0 20
N01744           2.9241       2.3799     0 0 20
N00162           3.6773       6.8775     0 0 20
N01146           15.2458      14.6199    0 0 20
N00182           4.2401       1.2667     0 0 20
N00590           13.7465      8.8573     0 0 20
N00618           19.4764      14.0686    0 0 20
N01037           4.9924       2.0666     0 0 20
N00386           4.1494       1.8571     0 0 20
N02122           6.2206       6.0049     0 0 20
N01277           19.2989      9.2788     0 0 20
N02487           4.5985       0.9059     0 0 20
N01047           15.8800      11.9741    0 0 20
N01252           6.2012       5.7851     0 0 20
N00112           2.9850       3.0645     0 0 20
N02169           5.3680       7.5907     0 0 20
N00682           5.4140       7.9969     0 0 20
N02055           5.5600       16.7357    0 0 20
N02613           5.9382       4.3286     0 0 20
N00306           6.2300       3.1996     0 0 20
N01538           4.6357       1.6989     0 0 20
N02841           17.4842      3.7346     0 0 20
N01761           3.2501       2.4710     0 0 20
N01435           6.0628       2.6433     0 0 20
N01354           19.8469      17.3256    0 0 20
N00254           3.2935       2.7326     0 0 20
N00453           6.3212       8.4232     0 0 20
N00262           3.3358       3.8078     0 0 20
N01458           13.8962      9.2186     0 0 20
N00774           17.0707      31.8588    0 0 20
N02118           6.3117       2.7534     0 0 20
N01069           16.0703      1.9614     0 0 20
N00572           15.3033      3.8597     0 0 20
N02412           15.3354      28.3200    0 0 20
N02119           6.1094       13.1135    0 0 20
N02178           2.5997       1.9700     0 0 20
N00236           1.0517       3.2020     0 0 20
N02175           3.0092       2.0468     0 0 20
N00244           4.5394       2.1639     0 0 20
N02780           16.3083      2.7577     0 0 20
N00270           3.2088       3.1175     0 0 20
N00135           3.4144       2.8872     0 0 20
N02140           6.2594       8.0125     0 0 20
N01638           1.5743       2.2978     0 0 20
N01248           1.5967       2.7788     0 0 20
N01815           5.7416       4.7840     0 0 20
N02208           4.5051       6.9057     0 0 20
N02794           6.4846       5.9109     0 0 20
N00429           15.1221      7.2591     0 0 20
N01100           3.9215       1.2211     0 0 20
N02507           13.7665      9.9330     0 0 20
N01728           3.4272       2.6629     0 0 20
N01711           6.3789       0.6769     0 0 20
N01762           3.1596       2.3562     0 0 20
N01823           7.7648       13.5715    0 0 20
N01292           3.1850       4.3153     0 0 20
N00713           19.3977      15.9950    0 0 20
N01526           6.1410       6.5962     0 0 20
N00416           5.5535       15.3011    0 0 20
N01022           13.0809      35.9426    0 0 20
N02519           6.3268       5.0862     0 0 20
N01487           3.2127       1.6058     0 0 20
N02502           16.2349      1.0526     0 0 20
N02366           2.5499       2.1939     0 0 20
N00648           1.1245       3.0760     0 0 20
N00974           18.9280      8.2696     0 0 20
N02539           1.4270       4.6807     0 0 20
N02104           19.3163      12.1720    0 0 20
N01704           4.6324       2.5873     0 0 20
N00101           3.2527       2.8707     0 0 20
N02741           6.3350       13.8694    0 0 20
N02647           5.9004       7.3835     0 0 20
N01296           3.1240       5.0503     0 0 20
N02249           15.8191      3.6478     0 0 20
N01315           7.6225       9.3683     0 0 20
N01266           6.0767       6.9988     0 0 20
N00680           6.1490       5.2660     0 0 20
N02676           6.0422       8.3430     0 0 20
N01690           4.8146       2.5453     0 0 20
N01836           6.1464       4.4233     0 0 20
N00117           3.4686       9.8490     0 0 20
N01508           5.4350       9.3633     0 0 20
N00710           19.6071      3.1493     0 0 20
N00439           15.1143      11.0881    0 0 20
N02484           4.5538       0.7688     0 0 20
N00430           15.0909      12.0195    0 0 20
N01396           3.4515       5.0371     0 0 20
N01827           6.0416       3.7457     0 0 20
N02587           14.3054      6.5218     0 0 20
N00329           3.1766       1.9596     0 0 20
N01402           13.7995      8.9865     0 0 20
N02328           1.6688       3.2368     0 0 20
N02627           4.0080       7.3467     0 0 20
N01366           8.6318       5.6683     0 0 20
N01001           15.9803      6.6951     0 0 20
N01147           15.3066      22.7777    0 0 20
N01737           3.4625       3.8486     0 0 20
N02686           16.0467      7.9666     0 0 20
N01796           5.2992       5.0164     0 0 20
N02168           5.3661       7.5962     0 0 20
N00098           7.7350       0.5000     0 0 20
N02689           15.9024      11.6699    0 0 20
N00992           17.4085      1.7698     0 0 20
N01009           8.2343       12.7699    0 0 20
N02643           6.1174       6.9984     0 0 20
N00555           16.2288      2.3642     0 0 20
N00384           4.1763       1.4520     0 0 20
N01596           13.8489      6.7411     0 0 20
N02623           3.3713       1.7553     0 0 20
N01607           3.0921       3.4316     0 0 20
N01514           7.3456       3.7540     0 0 20
N00709           19.6739      0.5000     0 0 20
N01429           6.0051       4.4833     0 0 20
N00540           6.5395       9.0178     0 0 20
N00282           5.0431       2.9518     0 0 20
N02100           19.4681      13.4962    0 0 20
N02719           6.3533       1.7644     0 0 20
N01945           3.2272       3.4714     0 0 20
N00854           6.5842       7.9359     0 0 20
N02072           5.9304       7.3535     0 0 20
N01290           4.3137       0.9245     0 0 20
N01790           4.3618       2.1714     0 0 20
N01164           1.2560       1.7479     0 0 20
N02014           8.0272       2.5938     0 0 20
N02696           6.1973       2.5324     0 0 20
N01906           8.9821       6.6137     0 0 20
N00794           3.2560       2.2288     0 0 20
N02309           14.9133      23.3089    0 0 20
N00671           15.1336      23.8513    0 0 20
N01830           4.7446       5.4474     0 0 20
N01015           7.6078       8.2201     0 0 20
N00123           3.1668       2.2694     0 0 20
N00809           3.9856       7.4317     0 0 20
N02748           15.2380      27.0456    0 0 20
N01898           8.1247       9.1756     0 0 20
N01364           19.3564      13.2384    0 0 20
N02766           4.3725       1.4446     0 0 20
N00319           19.4616      4.5530     0 0 20
N00267           3.2848       2.7412     0 0 20
N00239           4.6622       1.0842     0 0 20
N02417           15.1607      23.4088    0 0 20
N02046           8.2557       3.2744     0 0 20
N00369           1.3182       7.3038     0 0 20
N01861           6.0150       4.6848     0 0 20
N01994           7.7230       2.9512     0 0 20
N00901           2.9222       1.6118     0 0 20
N02677           6.1374       5.4967     0 0 20
N01930           8.1838       2.0000     0 0 20
N00426           6.3712       7.6505     0 0 20
N00817           4.1792       1.5197     0 0 20
N02174           2.9073       1.8136     0 0 20
N00324           6.2079       4.4992     0 0 20
N01400           13.7597      3.9073     0 0 20
N02721           17.3336      3.3199     0 0 20
N01814           5.6211       5.1010     0 0 20
N00687           5.8588       7.5521     0 0 20
N02448           6.0307       11.0744    0 0 20
N02005           8.1966       6.5691     0 0 20
N02070           5.3458       39.0297    0 0 20
N02248           15.8365      5.5861     0 0 20
N00360           3.9637       4.8235     0 0 20
N01457           3.7848       2.2284     0 0 20
N00607           15.4931      25.7427    0 0 20
N01635           1.5843       2.2878     0 0 20
N02576           3.0303       1.4805     0 0 20
N00574           13.6011      3.8301     0 0 20
N02529           15.9120      15.2335    0 0 20
N01048           15.6056      19.4394    0 0 20
N02390           3.8939       3.0945     0 0 20
N01968           5.1708       4.9678     0 0 20
N00374           0.9906       3.5838     0 0 20
N00161           3.2580       2.9477     0 0 20
N02731           6.2941       14.0453    0 0 20
N01492           3.0987       2.8065     0 0 20
N02219           17.5314      12.6338    0 0 20
N00549           6.5676       9.0443     0 0 20
N01727           3.2325       3.1886     0 0 20
N01785           4.5880       2.2374     0 0 20
N00795           3.1711       1.9719     0 0 20
N01949           4.7368       2.3322     0 0 20
N01908           8.6194       5.8575     0 0 20
N00292           6.0789       7.8920     0 0 20
N00541           6.6535       9.6661     0 0 20
N02424           8.8468       13.2186    0 0 20
N02524           13.5419      12.5981    0 0 20
N00359           3.8930       2.0555     0 0 20
N01339           6.1397       6.7542     0 0 20
N00133           3.3132       3.1490     0 0 20
N01269           3.5410       1.9460     0 0 20
N02517           6.4827       1.8020     0 0 20
N02239           15.8233      8.1309     0 0 20
N01118           6.2900       2.4662     0 0 20
N01430           4.6123       3.3043     0 0 20
N02843           16.1204      4.9846     0 0 20
N00376           3.9770       2.6395     0 0 20
N00357           3.9205       6.8670     0 0 20
N02500           3.8303       34.1161    0 0 20
N01326           15.4081      3.7576     0 0 20
N01786           4.4765       3.1827     0 0 20
N01074           7.7507       8.4273     0 0 20
N00198           6.4194       0.7283     0 0 20
N01288           6.3646       6.6697     0 0 20
N02717           4.2607       3.3222     0 0 20
N01285           6.6003       22.2378    0 0 20
N01935           8.8560       12.7651    0 0 20
N02143           4.1719       2.4762     0 0 20
N01811           5.1450       5.5979     0 0 20
N01952           3.3996       1.7270     0 0 20
N02590           13.8065      9.1283     0 0 20
N02442           3.2941       1.9621     0 0 20
N01970           8.9560       15.3464    0 0 20
N01946           4.6331       2.5677     0 0 20
N02504           16.0874      3.4942     0 0 20
N01120           4.6546       2.4255     0 0 20
N00255           3.3382       4.7086     0 0 20
N02445           4.3608       1.2694     0 0 20
N02779           16.4462      2.0140     0 0 20
N00106           3.1415       2.0573     0 0 20
N00401           1.4806       3.5998     0 0 20
N01912           6.3457       3.3903     0 0 20
N01801           5.8264       3.1541     0 0 20
N01338           5.9216       1.6084     0 0 20
N01763           3.2087       2.6449     0 0 20
N02306           15.0915      30.0849    0 0 20
N01461           3.6519       7.1250     0 0 20
N00022           4.5151       3.8423     0 0 20
N00929           15.1194      23.7737    0 0 20
N01135           6.6674       19.8115    0 0 20
N02290           15.4280      17.8852    0 0 20
N01320           7.7038       8.7228     0 0 20
N01358           6.1853       5.0070     0 0 20
N00415           6.1351       6.8044     0 0 20
N01259           8.6075       12.0155    0 0 20
N00309           5.0059       2.0531     0 0 20
N01871           4.3517       3.5070     0 0 20
N01474           2.9532       2.0152     0 0 20
N00322           6.1315       6.7624     0 0 20
N00675           3.2982       3.6728     0 0 20
N02777           17.5356      1.0499     0 0 20
N02514           16.0526      1.3820     0 0 20
N02739           6.2717       14.0263    0 0 20
N02743           3.3895       3.7481     0 0 20
N02642           6.2300       2.8023     0 0 20
N01919           8.7299       12.9354    0 0 20
N02703           4.1812       4.1095     0 0 20
N02291           15.2805      15.0778    0 0 20
N01907           9.0173       6.5410     0 0 20
N02301           15.5043      22.2946    0 0 20
N02475           4.1988       3.7429     0 0 20
N02603           3.2970       1.9592     0 0 20
N00451           6.3725       7.6492     0 0 20
N02629           4.0269       7.3278     0 0 20
N02088           3.5645       0.9539     0 0 20
N01438           6.0628       3.8488     0 0 20
N02047           8.2959       7.5210     0 0 20
N00340           4.0108       1.7074     0 0 20
N01701           4.4108       2.6471     0 0 20
N01378           6.5293       7.9300     0 0 20
N00779           15.6491      18.4927    0 0 20
N00665           14.9037      34.0981    0 0 20
N01054           15.5970      23.4341    0 0 20
N01565           13.7741      10.0831    0 0 20
N00909           6.3605       7.5603     0 0 20
N00631           1.2550       3.3907     0 0 20
N01332           19.8138      29.3725    0 0 20
N01090           16.1589      7.6154     0 0 20
N01075           8.0609       7.4639     0 0 20
N01896           7.7407       3.4353     0 0 20
N01852           6.1151       6.7431     0 0 20
N02641           6.2220       3.7495     0 0 20
N02461           6.7137       7.8064     0 0 20
N02798           6.3719       14.8311    0 0 20
N02020           8.2333       4.2815     0 0 20
N00958           2.9120       2.0854     0 0 20
N00886           6.4189       4.0516     0 0 20
N00647           1.3466       2.6871     0 0 20
N02464           6.3242       4.0966     0 0 20
N02608           3.6575       2.6355     0 0 20
N00116           3.4133       7.7102     0 0 20
N02048           8.3699       9.2423     0 0 20
N02381           3.2599       0.9867     0 0 20
N00013           7.0506       2.2280     0 0 20
N00124           3.2080       2.3581     0 0 20
N02802           3.7757       1.5862     0 0 20
N01345           3.2060       1.8246     0 0 20
N01876           4.5980       1.9011     0 0 20
N02618           3.4314       1.0279     0 0 20
N01465           3.3798       6.3688     0 0 20
N00100           3.0705       2.9486     0 0 20
N02191           3.2632       0.9964     0 0 20
N02044           8.4420       10.3586    0 0 20
N02026           8.4025       10.9363    0 0 20
N02476           5.8652       4.1663     0 0 20
N01812           5.9116       1.7740     0 0 20
N00694           6.1473       4.3217     0 0 20
N01063           15.7462      7.7865     0 0 20
N00532           6.3806       12.2870    0 0 20
N02697           13.8297      11.9338    0 0 20
N00438           15.1650      5.2856     0 0 20
N02329           1.5882       4.1858     0 0 20
N00291           6.1789       5.3589     0 0 20
N01891           7.9890       8.5734     0 0 20
N01929           4.7803       3.8054     0 0 20
N01874           4.2016       1.4973     0 0 20
N01729           3.3466       3.2121     0 0 20
N00337           4.2789       3.4619     0 0 20
N00086           3.5617       1.0793     0 0 20
N00336           4.3233       2.4582     0 0 20
N00290           6.3289       4.9593     0 0 20
N02003           7.8366       3.6562     0 0 20
N00350           3.9779       3.2050     0 0 20
N02536           15.8720      24.4567    0 0 20
N00128           2.6144       1.9553     0 0 20
N01336           19.8215      28.9097    0 0 20
N02010           8.1775       9.5828     0 0 20
N00149           3.1393       2.3533     0 0 20
N02317           3.1949       2.1511     0 0 20
N01783           3.4713       3.1509     0 0 20
N00179           4.3509       0.8829     0 0 20
N01080           3.0848       2.8020     0 0 20
N02120           6.0594       6.0228     0 0 20
N01310           3.9702       14.8676    0 0 20
N02146           6.5181       2.9094     0 0 20
N01522           1.7279       10.3046    0 0 20
N00744           5.0906       6.1039     0 0 20
N02052           8.9777       13.6900    0 0 20
N01643           3.2178       1.6430     0 0 20
N02275           15.8134      5.3921     0 0 20
N01561           5.8188       7.5921     0 0 20
N02720           6.5381       1.9971     0 0 20
N01877           4.1636       16.5902    0 0 20
N01468           3.1508       2.0792     0 0 20
N00888           4.1469       1.2121     0 0 20
N01560           5.7048       7.7061     0 0 20
N02263           15.5530      6.2410     0 0 20
N01746           3.0304       3.6414     0 0 20
N02427           3.6560       10.1875    0 0 20
N02294           14.8401      20.9383    0 0 20
N00105           3.1192       2.1882     0 0 20
N01426           5.9452       3.7188     0 0 20
N02612           5.9347       4.4380     0 0 20
N01782           3.3713       3.0497     0 0 20
N01213           14.8426      19.7513    0 0 20
N02495           1.2860       1.8444     0 0 20
N00949           16.9193      30.6724    0 0 20
N00143           3.5730       8.0244     0 0 20
N02002           7.6594       2.0000     0 0 20
N02522           13.5812      33.7723    0 0 20
N02725           5.8391       7.4425     0 0 20
N00626           1.6690       11.5999    0 0 20
N02534           15.7045      17.4498    0 0 20
N02638           5.8815       8.5895     0 0 20
N02058           5.7879       9.4034     0 0 20
N00234           1.1950       3.3622     0 0 20
N01369           7.7450       8.2703     0 0 20
N02425           8.9665       14.0834    0 0 20
N01625           3.2360       1.6091     0 0 20
N01256           5.6646       19.3243    0 0 20
N02754           5.8961       3.0800     0 0 20
N02062           5.7606       11.6144    0 0 20
N00213           1.0570       3.3368     0 0 20
N01267           5.9649       12.1129    0 0 20
N01772           3.3690       3.0521     0 0 20
N02077           6.0010       8.7856     0 0 20
N00636           1.1538       3.3682     0 0 20
N01862           5.8045       2.7081     0 0 20
N02368           2.5815       2.1637     0 0 20
N02352           1.4998       3.1437     0 0 20
N01850           6.0291       4.9865     0 0 20
N00054           8.0915       9.0853     0 0 20
N00489           8.1378       9.8950     0 0 20
N01598           13.8465      9.1641     0 0 20
N01130           4.1170       1.1213     0 0 20
N01971           5.0819       3.6977     0 0 20
N02378           2.5501       5.0982     0 0 20
N00510           16.3606      1.1102     0 0 20
N00311           5.9587       4.9620     0 0 20
N01462           3.5826       8.3728     0 0 20
N01938           8.9237       9.8057     0 0 20
N00500           8.5382       8.2216     0 0 20
N02527           15.8760      13.3397    0 0 20
N02411           15.2854      34.3532    0 0 20
N00264           3.4147       3.3938     0 0 20
N01460           3.5414       7.7021     0 0 20
N01962           8.9312       15.5837    0 0 20
N00113           3.0745       2.8370     0 0 20
N00796           3.2807       1.8459     0 0 20
N02506           15.3694      32.2066    0 0 20
N01539           3.4647       4.7275     0 0 20
N00221           4.1855       1.5134     0 0 20
N02013           8.6639       18.6760    0 0 20
N00348           3.9867       1.7486     0 0 20
N01006           16.0119      5.5361     0 0 20
N00200           6.4033       1.5129     0 0 20
N02157           5.3980       6.7644     0 0 20
N00718           19.3663      8.1165     0 0 20
N01293           3.3990       3.2471     0 0 20
N00085           3.5841       0.9845     0 0 20
N02672           3.6643       9.2890     0 0 20
N00829           4.7552       1.8147     0 0 20
N00258           3.3359       3.1695     0 0 20
N02015           8.2975       7.9646     0 0 20
N01062           15.5430      6.3041     0 0 20
N01433           6.0334       2.8463     0 0 20
N01408           7.7354       8.7942     0 0 20
N02528           15.8899      11.6187    0 0 20
N02567           15.6580      5.3205     0 0 20
N02315           2.9325       3.1252     0 0 20
N01724           3.3566       3.1838     0 0 20
N02543           17.2031      7.2525     0 0 20
N01620           1.4523       4.6665     0 0 20
N00621           4.1631       1.3086     0 0 20
N01443           5.9652       3.5423     0 0 20
N01391           0.9347       3.4842     0 0 20
N00720           19.4376      5.4572     0 0 20
N00808           4.0256       8.5213     0 0 20
N01921           8.8444       14.3142    0 0 20
N01385           2.6197       1.9500     0 0 20
N01542           4.7457       0.5000     0 0 20
N01846           5.4782       6.4420     0 0 20
N00702           19.6471      1.1753     0 0 20
N02549           17.0713      11.0647    0 0 20
N00703           6.3094       12.1850    0 0 20
N00114           3.2833       4.5753     0 0 20
N01404           2.5911       2.4576     0 0 20
N02286           16.1356      5.2096     0 0 20
N00353           3.9467       4.6362     0 0 20
N00099           7.7411       0.8472     0 0 20
N02115           6.4234       6.1342     0 0 20
N02300           15.4143      15.0670    0 0 20
N01382           1.2270       5.0446     0 0 20
N00792           3.2767       1.8499     0 0 20
N00535           6.4166       14.6875    0 0 20
N01771           3.2277       3.1988     0 0 20
N00009           7.4429       2.2733     0 0 20
N00141           1.3460       3.1738     0 0 20
N00154           3.3660       6.2301     0 0 20
N01872           4.2876       4.3991     0 0 20
N01008           15.9029      8.7888     0 0 20
N02418           15.1336      24.1098    0 0 20
N01207           5.6741       4.3523     0 0 20
N02242           15.5430      6.5239     0 0 20
N02066           5.4600       22.4096    0 0 20
N02444           3.3217       2.1805     0 0 20
N00811           3.9953       7.3594     0 0 20
N01579           4.1519       3.5853     0 0 20
N02584           6.3034       14.0327    0 0 20
N01623           3.3871       1.1705     0 0 20
N00890           4.1311       1.1071     0 0 20
N02243           15.6601      10.3927    0 0 20
N00831           5.0484       4.1334     0 0 20
N00821           4.5375       3.4263     0 0 20
N01654           3.2147       3.1116     0 0 20
N00269           3.2988       2.7273     0 0 20
N01111           5.1450       5.5535     0 0 20
N00091           3.5648       4.1209     0 0 20
N00203           6.2616       2.8803     0 0 20
N01602           15.4177      34.3871    0 0 20
N02845           8.5466       15.2902    0 0 20
N01835           6.1040       5.1053     0 0 20
N00284           4.6280       2.1974     0 0 20
N00449           6.5034       8.0167     0 0 20
N02795           6.4851       7.8580     0 0 20
N00107           3.2747       6.1455     0 0 20
N01346           3.1040       1.9265     0 0 20
N02114           6.3787       6.0167     0 0 20
N02713           4.2112       2.5805     0 0 20
N02836           16.0550      8.2269     0 0 20
N02261           15.8491      2.4599     0 0 20
N02117           6.1317       4.5487     0 0 20
N01247           1.4968       2.8034     0 0 20
N02498           5.8069       2.5408     0 0 20
N02589           13.9065      7.8125     0 0 20
N00300           5.1659       1.9799     0 0 20
N00497           16.3859      1.3066     0 0 20
N01365           19.3163      8.2791     0 0 20
N01141           13.8550      9.2182     0 0 20
N00963           4.4025       0.8062     0 0 20
N00222           4.2932       0.8334     0 0 20
N02133           6.1006       5.5999     0 0 20
N00569           15.3800      8.5456     0 0 20
N00250           4.5875       7.9187     0 0 20
N01527           15.9523      8.0761     0 0 20
N01264           8.4919       12.2523    0 0 20
N02430           8.5108       11.6925    0 0 20
N00639           1.3260       2.6307     0 0 20
N01953           4.5582       0.7581     0 0 20
N00509           16.2878      1.4710     0 0 20
N00268           3.3501       3.1414     0 0 20
N00685           5.8600       7.5509     0 0 20
N02558           1.2909       6.3379     0 0 20
N00725           7.4888       1.0425     0 0 20
N00405           1.5751       3.7080     0 0 20
N00691           16.0914      6.4575     0 0 20
N02635           6.4608       12.2427    0 0 20
N01957           8.6088       12.2448    0 0 20
N01881           4.6306       3.2397     0 0 20
N00283           4.9984       2.0877     0 0 20
N00819           4.3564       6.9963     0 0 20
N02351           1.6412       3.1525     0 0 20
N02027           8.3020       10.1408    0 0 20
N00611           15.1394      25.2118    0 0 20
N02599           13.3635      3.9278     0 0 20
N00243           4.5394       1.7380     0 0 20
N02050           6.2005       8.1385     0 0 20
N00389           4.0680       1.6250     0 0 20
N02462           6.2882       5.1739     0 0 20
N00722           19.5264      4.3814     0 0 20
N02382           4.6227       1.1633     0 0 20
N02441           4.1312       2.8812     0 0 20
N01610           4.2767       0.5000     0 0 20
N02749           15.3201      31.0768    0 0 20
N02079           3.7983       12.1260    0 0 20
N00508           16.2478      1.2720     0 0 20
N02566           15.7434      5.6878     0 0 20
N00344           4.0296       3.8260     0 0 20
N00903           3.1173       1.8698     0 0 20
N02034           8.5393       12.7693    0 0 20
N02254           15.7468      5.3331     0 0 20
N02231           15.8533      9.8422     0 0 20
N02515           15.9422      2.3282     0 0 20
N00727           13.5278      13.5956    0 0 20
N01973           5.6422       18.7394    0 0 20
N00372           1.1485       3.1440     0 0 20
N01888           5.0502       4.0097     0 0 20
N01917           8.7017       10.5598    0 0 20
N00545           6.4238       8.5275     0 0 20
N02273           16.8350      24.8234    0 0 20
N00409           15.3133      3.7713     0 0 20
N02708           4.6556       1.1516     0 0 20
N01498           4.0826       5.8199     0 0 20
N02260           15.9198      3.1184     0 0 20
N02800           4.1785       2.6132     0 0 20
N02215           16.0165      17.6690    0 0 20
N02450           5.8707       8.4321     0 0 20
N00900           3.9665       3.3523     0 0 20
N00696           16.2614      0.5000     0 0 20
N00651           0.9708       3.3970     0 0 20
N00721           19.7029      14.7891    0 0 20
N02494           2.9669       1.9709     0 0 20
N00251           4.6757       1.7186     0 0 20
N01719           3.6573       2.9163     0 0 20
N00395           4.1263       3.0619     0 0 20
N00055           6.3837       8.4343     0 0 20
N00669           15.0544      18.2203    0 0 20
N00195           4.1304       3.2652     0 0 20
N02472           6.4823       0.5000     0 0 20
N00326           2.9411       2.4051     0 0 20
N01805           5.7616       4.6319     0 0 20
N01992           7.9482       6.9011     0 0 20
N00217           4.7357       0.5100     0 0 20
N02018           8.3533       19.0837    0 0 20
N02144           4.1735       2.1641     0 0 20
N01405           13.7192      15.4286    0 0 20
N00285           4.6685       2.5408     0 0 20
N02204           3.8369       4.9962     0 0 20
N01824           7.9248       6.4227     0 0 20
N00435           14.9886      22.1937    0 0 20
N01421           6.0957       4.8500     0 0 20
N02660           6.0310       6.0589     0 0 20
N02187           3.4439       0.9864     0 0 20
N00723           19.4235      4.7082     0 0 20
N01612           4.3283       10.1635    0 0 20
N01650           7.4146       1.8155     0 0 20
N02801           4.2560       3.3665     0 0 20
N01431           6.1853       3.1311     0 0 20
N01451           3.5302       2.8402     0 0 20
N02673           3.6959       9.2678     0 0 20
N02069           5.4099       18.0701    0 0 20
N00109           3.1107       2.6214     0 0 20
N02391           3.9139       3.4107     0 0 20
N02065           5.3819       20.3877    0 0 20
N01886           4.7415       1.8284     0 0 20
N01489           3.0781       2.4537     0 0 20
N01532           16.0562      8.9921     0 0 20
N00975           5.8874       3.3710     0 0 20
N01444           6.1717       9.3985     0 0 20
N00315           19.4205      28.2484    0 0 20
N00314           19.7915      29.2591    0 0 20
N00002           3.5470       5.8532     0 0 20
N01813           5.7329       5.1867     0 0 20
N01987           8.1166       6.9941     0 0 20
N01452           3.4496       2.6406     0 0 20
N01754           3.4672       2.6229     0 0 20
N01162           1.3323       2.7418     0 0 20
N01639           1.4437       2.4285     0 0 20
N02256           15.7652      12.3710    0 0 20
N01947           4.6408       1.9140     0 0 20
N01931           6.4294       1.6534     0 0 20
N01241           15.8249      3.0711     0 0 20
N01820           6.1683       4.4450     0 0 20
N02738           6.4257       14.9086    0 0 20
N02824           3.3730       1.2514     0 0 20
N02022           8.1251       6.5877     0 0 20
N00005           3.2733       5.2299     0 0 20
N01275           6.2379       2.4811     0 0 20
N02631           6.6111       9.5915     0 0 20
N01618           1.4829       3.1973     0 0 20
N01684           4.3682       2.9310     0 0 20
N00530           5.2753       8.0745     0 0 20
N00855           6.6919       8.1698     0 0 20
N00922           13.3879      1.2941     0 0 20
N00504           16.1962      1.5470     0 0 20
N00156           3.5098       7.3474     0 0 20
N00008           7.4378       0.7737     0 0 20
N02822           4.8153       11.6797    0 0 20
N01186           13.5025      7.3224     0 0 20
N00023           15.0976      32.5614    0 0 20
N02293           14.7694      17.2096    0 0 20
N02745           1.2950       3.0560     0 0 20
N01282           19.7561      22.4097    0 0 20
N01068           16.1723      2.3617     0 0 20
N01525           6.5050       0.7637     0 0 20
N00810           3.9128       3.0352     0 0 20
N00232           1.3160       3.3682     0 0 20
N00783           15.2758      30.2514    0 0 20
N01774           3.3677       3.0533     0 0 20
N01055           15.6698      20.5816    0 0 20
N00108           3.1888       2.5528     0 0 20
N01778           3.4829       3.0693     0 0 20
N00383           3.1770       3.3988     0 0 20
N02497           5.8869       2.5331     0 0 20
N01810           5.6753       4.5354     0 0 20
N02099           19.4664      14.0718    0 0 20
N02457           15.2363      20.2118    0 0 20
N00947           16.8231      30.4621    0 0 20
N01113           6.2494       2.2217     0 0 20
N02266           16.8153      6.6061     0 0 20
N00181           4.3921       0.7345     0 0 20
N01697           3.4866       5.8027     0 0 20
N01502           2.9280       4.3496     0 0 20
N00167           4.4547       1.1767     0 0 20
N00237           0.9440       2.1482     0 0 20
N01131           4.1386       1.4041     0 0 20
N01720           3.4525       3.9846     0 0 20
N01093           17.5882      6.4080     0 0 20
N01283           19.8015      26.8305    0 0 20
N01394           3.6264       10.2524    0 0 20
N01750           3.0738       3.2624     0 0 20
N02437           3.8564       15.5678    0 0 20
N00053           8.5893       12.4593    0 0 20
N00140           1.3960       3.0898     0 0 20
N01265           8.3199       8.5819     0 0 20
N00587           13.8626      7.0435     0 0 20
N02181           2.5697       2.0000     0 0 20
N01843           6.1747       6.1770     0 0 20
N02137           6.2514       9.1080     0 0 20
N01893           8.1031       21.5740    0 0 20
N01726           3.3325       3.1400     0 0 20
N00693           6.3814       3.3395     0 0 20
N00275           4.9413       4.3477     0 0 20
N01769           3.2290       3.1921     0 0 20
N02354           1.5014       3.1420     0 0 20
N01476           2.6397       3.1499     0 0 20
N00537           5.4150       7.8980     0 0 20
N00894           3.9871       7.0137     0 0 20
N02086           3.5444       1.0454     0 0 20
N02610           2.6697       3.2493     0 0 20
N01479           3.7910       3.0943     0 0 20
N02375           3.1948       2.1998     0 0 20
N01061           15.6507      10.4839    0 0 20
N00432           15.2992      5.0781     0 0 20
N00514           15.9514      2.4547     0 0 20
N01613           1.2911       2.7432     0 0 20
N00280           4.8852       2.6423     0 0 20
N02842           1.4268       2.6139     0 0 20
N01528           16.0138      8.5268     0 0 20
N02173           4.5038       2.4368     0 0 20
N01662           4.5408       4.1259     0 0 20
N00739           6.4104       11.9088    0 0 20
N00092           3.4215       2.0000     0 0 20
N01477           2.6597       3.7312     0 0 20
N00089           0.9940       3.1842     0 0 20
N01991           8.1266       7.0399     0 0 20
N00659           3.0500       2.1699     0 0 20
N02765           4.3933       1.9605     0 0 20
N00202           6.3894       1.4452     0 0 20
N00171           4.4795       0.6471     0 0 20
N00245           4.6322       1.4299     0 0 20
N02004           8.2557       4.5489     0 0 20
N02810           6.3291       5.2902     0 0 20
N00169           4.4019       1.7727     0 0 20
N00157           13.8505      10.6408    0 0 20
N01911           6.4701       2.5573     0 0 20
N02415           15.0827      16.3020    0 0 20
N01982           15.9781      5.1768     0 0 20
N02735           6.4398       12.6919    0 0 20
N00993           16.1504      3.5765     0 0 20
N01140           13.9453      8.2218     0 0 20
N01333           4.4247       1.0295     0 0 20
N01692           4.5033       2.3965     0 0 20
N00021           4.5551       5.6238     0 0 20
N02232           15.8456      16.1415    0 0 20
N00547           6.2706       7.1732     0 0 20
N01499           4.1238       4.2052     0 0 20
N00127           2.6409       4.4155     0 0 20
N00397           4.1623       3.0259     0 0 20
N01260           8.6305       11.9983    0 0 20
N02384           3.2823       1.0324     0 0 20
N00986           17.4530      1.1861     0 0 20
N00698           19.7067      29.0081    0 0 20
N00946           16.7841      30.6071    0 0 20
N02704           4.1012       2.9584     0 0 20
N00341           3.9106       2.0379     0 0 20
N00020           4.5976       3.7599     0 0 20
N00238           4.6096       6.7074     0 0 20
N01641           1.7051       2.1670     0 0 20
N01302           6.3652       0.5000     0 0 20
N00257           3.2535       4.1740     0 0 20
N01475           2.8979       1.3995     0 0 20
N01964           8.9661       8.1824     0 0 20
N02511           13.7941      10.2608    0 0 20
N01078           8.8385       13.9439    0 0 20
N02674           3.6866       9.2954     0 0 20
N00215           4.5800       1.8676     0 0 20
N02657           5.9104       7.3735     0 0 20
N01004           15.9529      8.0081     0 0 20
N01738           3.5502       3.1212     0 0 20
N00342           3.9735       2.7700     0 0 20
N02513           16.0726      1.3620     0 0 20
N02325           1.1794       3.1091     0 0 20
N01768           3.1365       3.5495     0 0 20
N01578           4.2319       3.5690     0 0 20
N01420           5.5218       12.1584    0 0 20
N02710           6.4187       5.9767     0 0 20
N01841           5.4511       6.4900     0 0 20
N02280           15.7934      5.1851     0 0 20
N01925           8.9461       8.1279     0 0 20
N00041           4.6176       3.7399     0 0 20
N02024           8.4522       9.9971     0 0 20
N00836           1.2770       5.8263     0 0 20
N00185           3.1244       3.0539     0 0 20
N00371           1.1909       3.8656     0 0 20
N01363           19.4292      23.2487    0 0 20
N00637           1.1639       3.2279     0 0 20
N01517           7.0919       2.4490     0 0 20
N02075           6.0422       10.0476    0 0 20
N02832           16.0438      8.7631     0 0 20
N02377           2.4777       2.1779     0 0 20
N00063           3.5023       5.7355     0 0 20
N00600           19.5487      18.5140    0 0 20
N01849           4.4639       2.9734     0 0 20
N00424           6.4012       7.9734     0 0 20
N01977           8.4644       10.7145    0 0 20
N00305           6.2553       2.2606     0 0 20
N02331           3.9361       11.5124    0 0 20
N00172           3.2907       1.8359     0 0 20
N00879           3.5420       0.9763     0 0 20
N00170           4.4371       3.6146     0 0 20
N00726           7.4978       7.1535     0 0 20
N00012           7.2124       2.4437     0 0 20
N00991           17.4846      1.4313     0 0 20
N01757           4.3718       2.1620     0 0 20
N01485           4.4742       0.6524     0 0 20
N01279           8.4924       12.2469    0 0 20
N00668           15.1266      13.1756    0 0 20
N01751           3.0887       2.7422     0 0 20
N02161           5.4999       5.0571     0 0 20
N01064           15.9661      30.5459    0 0 20
N02793           15.2491      4.5545     0 0 20
N00684           6.0727       7.2970     0 0 20
N00446           15.2892      5.1105     0 0 20
N00907           1.4882       3.1553     0 0 20
N01056           15.7504      14.6071    0 0 20
N02379           2.5699       2.0498     0 0 20
N00596           13.8726      9.5113     0 0 20
N02407           17.6082      7.4982     0 0 20
N01657           6.4311       0.5184     0 0 20
N01469           3.1808       2.0585     0 0 20
N01086           4.3468       1.7523     0 0 20
N02110           15.2550      5.6617     0 0 20
N02651           6.1227       6.8624     0 0 20
N00229           3.3364       2.6897     0 0 20
N00297           6.1196       7.0691     0 0 20
N00097           3.5015       4.3872     0 0 20
N00551           8.2119       14.1048    0 0 20
N01551           4.9701       2.4149     0 0 20
N01380           3.6326       9.3251     0 0 20
N02241           15.8433      13.6846    0 0 20
N02035           8.3106       8.1935     0 0 20
N01582           8.1343       9.3967     0 0 20
N01344           3.1340       1.8965     0 0 20
N02289           15.3919      12.8665    0 0 20
N00075           16.3928      5.8153     0 0 20
N00136           1.6806       4.7146     0 0 20
N02426           3.6973       11.6280    0 0 20
N02490           3.1348       2.7191     0 0 20
N02298           15.4919      6.9808     0 0 20
N00615           19.0351      9.4288     0 0 20
N00920           13.2139      22.7167    0 0 20
N01760           3.2841       2.9380     0 0 20
N01287           6.4646       5.9309     0 0 20
N02742           6.2334       13.5656    0 0 20
N02356           1.7929       3.7657     0 0 20
N00605           15.7551      14.7983    0 0 20
N00068           7.5550       0.9533     0 0 20
N01123           4.3633       2.0858     0 0 20
N01034           4.4792       3.3705     0 0 20
N00192           3.4271       1.6994     0 0 20
N02645           5.9320       7.9395     0 0 20
N01840           6.0551       5.0070     0 0 20
N01049           15.6689      19.4668    0 0 20
N01784           4.4723       2.9611     0 0 20
N00941           2.6844       3.7851     0 0 20
N01901           9.0567       2.6698     0 0 20
N00856           8.1850       6.2954     0 0 20
N02712           15.2850      2.6198     0 0 20
N02264           15.9598      4.6499     0 0 20
N01601           15.4081      33.3079    0 0 20
N01611           1.6968       3.0800     0 0 20
N02692           16.0328      6.9119     0 0 20
N00007           7.6550       1.2413     0 0 20
N01010           16.1312      7.1125     0 0 20
N02588           13.8265      9.2158     0 0 20
N01745           3.0442       2.9387     0 0 20
N02681           6.0375       8.8937     0 0 20
N00115           3.3371       5.3978     0 0 20
N02364           2.6836       2.9977     0 0 20
N02281           15.4319      9.7691     0 0 20
N02698           13.7392      14.4512    0 0 20
N01329           15.3849      0.5000     0 0 20
N02410           17.3836      3.8594     0 0 20
N01752           3.0081       4.4630     0 0 20
N02711           15.2750      3.2672     0 0 20
N01021           13.2127      27.7881    0 0 20
N02747           4.6033       1.8957     0 0 20
N01038           4.9852       2.1008     0 0 20
N02520           3.6380       8.0030     0 0 20
N02699           2.9085       1.6038     0 0 20
N00786           1.3116       2.7931     0 0 20
N00074           16.3422      3.0577     0 0 20
N02728           6.5736       9.8089     0 0 20
N02582           6.4862       14.0015    0 0 20
N02287           16.0603      7.2544     0 0 20
N01933           6.4894       1.8017     0 0 20
N00853           17.3047      3.1738     0 0 20
N01860           5.8245       6.1363     0 0 20
N01559           3.4633       2.6269     0 0 20
N02646           19.7213      27.8433    0 0 20
N01816           5.9716       3.8383     0 0 20
N01437           6.0128       4.6004     0 0 20
N00010           7.3333       1.8613     0 0 20
N00035           15.9110      6.9259     0 0 20
N01491           3.0081       3.7957     0 0 20
N02177           2.8973       1.9642     0 0 20
N00201           6.4788       2.6227     0 0 20
N02606           2.6620       3.3350     0 0 20
N01318           7.4678       10.0434    0 0 20
N02105           19.3064      13.2836    0 0 20
N01466           3.1825       2.0628     0 0 20
N01736           6.3589       5.5223     0 0 20
N00346           3.2087       2.7549     0 0 20
N02109           15.2350      7.3381     0 0 20
N02786           6.1940       3.8539     0 0 20
N00812           4.0853       12.5837    0 0 20
N00442           15.1504      8.0806     0 0 20
N01493           3.1864       3.4434     0 0 20
N02374           3.1148       2.7478     0 0 20
N00498           16.1820      1.3426     0 0 20
N00375           4.1270       3.0502     0 0 20
N02166           5.4114       10.2350    0 0 20
N01031           4.2060       2.5857     0 0 20
N00502           16.3661      0.9924     0 0 20
N01441           6.1400       5.5694     0 0 20
N01656           6.3911       0.5584     0 0 20
N02188           3.3632       1.3511     0 0 20
N01478           2.6897       3.3081     0 0 20
N00707           16.1019      1.3327     0 0 20
N00870           3.5257       8.9859     0 0 20
N01521           3.9218       6.0348     0 0 20
N00402           1.5712       4.6007     0 0 20
N00399           4.1717       1.3571     0 0 20
N01740           3.4949       2.9812     0 0 20
N02665           6.0225       6.4735     0 0 20
N01361           16.0726      1.7466     0 0 20
N00906           1.5482       4.2790     0 0 20
N02767           3.3317       2.2543     0 0 20
N00629           1.0689       3.1093     0 0 20
N00871           3.4451       1.1016     0 0 20
N01640           1.3166       2.9712     0 0 20
N01533           13.9266      8.9619     0 0 20
N00959           2.8673       5.6020     0 0 20
N01831           6.0951       4.8123     0 0 20
N00553           8.4745       23.0313    0 0 20
N02251           15.7510      11.5768    0 0 20
N00609           15.2789      29.6405    0 0 20
N00692           6.3086       1.9825     0 0 20
N02611           2.8361       1.4614     0 0 20
N01773           3.4695       3.2094     0 0 20
N01368           8.6518       8.3976     0 0 20
N02781           16.3200      2.8083     0 0 20
N00591           13.6571      7.5504     0 0 20
N00852           15.8347      6.8845     0 0 20
N00905           3.2599       1.9661     0 0 20
N00775           19.8069      12.7976    0 0 20
N02107           19.2881      12.8832    0 0 20
N02438           3.9768       14.4655    0 0 20
N00444           15.1445      8.1258     0 0 20
N00931           15.4423      29.2955    0 0 20
N01788           4.4818       2.0030     0 0 20
N01434           6.1428       7.8790     0 0 20
N00585           13.8877      9.2487     0 0 20
N01974           5.6455       18.6357    0 0 20
N02467           6.3605       5.1341     0 0 20
N02666           6.2211       4.5512     0 0 20
N01445           5.7060       8.1739     0 0 20
N01291           17.1635      5.1786     0 0 20
N02505           15.9312      8.4488     0 0 20
N02282           16.0461      7.1611     0 0 20
N00320           6.2953       15.9443    0 0 20
N01870           4.3812       3.1384     0 0 20
N00619           13.5179      14.3031    0 0 20
N02060           5.5100       18.8616    0 0 20
N01853           5.9251       3.6497     0 0 20
N00187           4.4347       3.3782     0 0 20
N00689           5.1619       4.9896     0 0 20
N02073           6.0110       6.8143     0 0 20
N01858           5.9474       4.2081     0 0 20
N02607           3.7997       3.5894     0 0 20
N00067           7.3233       2.0260     0 0 20
N00263           3.3490       4.3875     0 0 20
N00235           1.1125       3.1586     0 0 20
N01732           3.5913       2.8935     0 0 20
N00312           19.4777      30.4165    0 0 20
N01500           3.0953       3.2471     0 0 20
N01389           2.8390       1.8819     0 0 20
N00776           19.9273      18.6959    0 0 20
N01889           4.9795       4.3071     0 0 20
N02746           6.5010       2.6703     0 0 20
N01864           5.8744       2.5019     0 0 20
N00769           14.2446      5.6866     0 0 20
N02192           3.4493       0.8945     0 0 20
N02722           6.3034       13.9624    0 0 20
N01802           5.8616       5.0602     0 0 20
N00586           13.8819      9.5129     0 0 20
N00634           1.1755       2.9215     0 0 20
N01342           6.0990       5.2993     0 0 20
N00335           4.2212       2.5705     0 0 20
N02727           6.4632       11.9661    0 0 20
N01274           4.5187       1.0335     0 0 20
N00301           5.0183       2.0842     0 0 20
N01000           15.9171      8.2885     0 0 20
N01626           3.1654       2.7078     0 0 20
N00457           16.1988      1.8898     0 0 20
N01373           7.6250       0.6480     0 0 20
N01398           3.7173       12.2606    0 0 20
N02160           5.5999       1.4478     0 0 20
N01143           15.1652      16.5936    0 0 20
N01042           3.8808       14.4422    0 0 20
N01619           1.4382       4.9215     0 0 20
N02551           17.0053      24.7333    0 0 20
N01278           19.3381      12.3489    0 0 20
N00672           15.2535      25.7669    0 0 20
N00566           5.3526       7.5395     0 0 20
N01781           3.4655       3.0392     0 0 20
N00212           0.9764       3.9192     0 0 20
N00069           7.6050       0.7568     0 0 20
N01114           6.3319       2.0256     0 0 20
N02385           3.4031       1.2856     0 0 20
N01349           3.1487       2.0491     0 0 20
N01447           5.7016       6.1590     0 0 20
N00645           1.5020       2.3701     0 0 20
N02458           14.8094      20.9068    0 0 20
N02297           15.4119      15.4244    0 0 20
N01362           19.3564      14.7883    0 0 20
N00204           6.1851       4.6964     0 0 20
N01410           7.8884       4.0630     0 0 20
N02130           6.4934       0.5440     0 0 20
N00851           17.4672      1.1512     0 0 20
N01959           5.6771       19.1065    0 0 20
N01686           4.3477       2.3834     0 0 20
N01584           3.3319       1.7947     0 0 20
N02076           6.0233       8.5240     0 0 20
N02057           5.8704       7.4927     0 0 20
N02182           2.7966       2.1880     0 0 20
N02718           6.4706       1.7708     0 0 20
N01839           5.2159       8.0098     0 0 20
N01956           6.5281       2.0898     0 0 20
N02753           5.8461       2.5268     0 0 20
N00400           1.4698       3.5153     0 0 20
N00814           4.1345       1.9876     0 0 20
N00138           1.5367       3.9017     0 0 20
N00083           3.7394       1.0602     0 0 20
N00014           4.1039       2.5760     0 0 20
N01531           16.2388      9.1416     0 0 20
N02669           6.2374       5.4851     0 0 20
N01327           16.1462      6.7258     0 0 20
N01309           7.6278       10.1211    0 0 20
N01566           13.8374      8.7124     0 0 20
N01427           5.9452       3.2006     0 0 20
N02216           16.0731      33.4660    0 0 20
N01666           6.2846       6.1109     0 0 20
N01834           5.8935       5.6732     0 0 20
N01958           5.6783       19.3621    0 0 20
N02094           19.0960      9.2246     0 0 20
N01059           19.7329      11.8597    0 0 20
N01606           3.1628       3.2553     0 0 20
N02736           6.5398       9.9694     0 0 20
N00151           3.0345       2.8891     0 0 20
N01749           3.2417       2.8294     0 0 20
N00664           14.9744      22.8153    0 0 20
N02729           6.3000       13.8922    0 0 20
N01588           19.7253      11.6315    0 0 20
N00506           16.4019      2.0504     0 0 20
N00773           15.8364      16.5039    0 0 20
N00925           13.2115      19.8273    0 0 20
N01324           16.0736      1.5431     0 0 20
N00660           2.9892       2.1367     0 0 20
N01129           4.1186       1.1196     0 0 20
N02555           17.0101      10.9925    0 0 20
N00126           2.7270       1.8427     0 0 20
N02694           15.8615      33.0370    0 0 20
N02768           4.4915       2.0122     0 0 20
N01887           5.1230       4.6812     0 0 20
N02283           15.9417      6.6814     0 0 20
N02496           1.3760       3.0553     0 0 20
N01587           19.6996      14.3945    0 0 20
N01572           3.3874       3.4073     0 0 20
N02486           4.5780       0.9264     0 0 20
N01012           1.6073       3.2491     0 0 20
N01845           5.1799       6.6729     0 0 20
N00656           1.3872       3.1692     0 0 20
N02238           15.8456      15.5566    0 0 20
N01125           4.0963       1.4236     0 0 20
N01065           15.8933      13.1670    0 0 20
N00294           6.2076       2.6029     0 0 20
N00382           3.1228       2.1932     0 0 20
N00714           19.3788      6.8544     0 0 20
N02021           8.2746       5.7209     0 0 20
N01915           8.5894       7.4205     0 0 20
N01286           9.0065       13.5237    0 0 20
N00410           15.3898      3.7010     0 0 20
N01689           3.5007       3.0094     0 0 20
N01776           3.5029       2.9819     0 0 20
N01007           16.0886      3.4930     0 0 20
N01102           3.7503       0.7680     0 0 20
N01905           8.8351       13.6483    0 0 20
N02658           6.1250       6.5000     0 0 20
N00673           3.6876       11.1393    0 0 20
N02709           3.3644       0.8342     0 0 20
N02553           17.0266      31.6579    0 0 20
N01847           5.9983       4.4523     0 0 20
N02833           8.5028       21.4201    0 0 20
N02008           8.1973       5.4883     0 0 20
N00102           3.2875       4.6171     0 0 20
N01240           15.7327      5.1680     0 0 20
N00220           4.3248       8.0514     0 0 20
N02540           1.3629       4.7433     0 0 20
N02632           6.4408       12.4714    0 0 20
N02664           6.1529       3.3915     0 0 20
N01884           4.7192       1.8508     0 0 20
N00984           15.9231      8.5931     0 0 20
N01470           2.8367       7.9136     0 0 20
N01083           4.6368       5.2798     0 0 20
N01775           3.2777       3.2261     0 0 20
N02844           16.0617      5.6267     0 0 20
N01401           13.6833      12.2959    0 0 20
N01960           5.8075       18.7744    0 0 20
N01885           4.5892       3.4038     0 0 20
N00327           2.8964       2.4383     0 0 20
N02113           6.3129       6.0826     0 0 20
N01617           3.2599       0.9867     0 0 20
N00495           16.2336      1.0782     0 0 20
N00139           1.4660       3.1231     0 0 20
N00688           5.2624       6.7873     0 0 20
N01273           4.5222       1.0501     0 0 20
N01651           7.5350       1.3033     0 0 20
N01449           5.5411       14.7339    0 0 20
N01092           17.6707      22.6483    0 0 20
N01529           16.0498      8.9144     0 0 20
N02274           16.7536      7.0053     0 0 20
N01471           2.6497       1.9200     0 0 20
N01297           3.0318       4.2146     0 0 20
N02090           3.6451       0.8732     0 0 20
N00708           6.2417       11.4720    0 0 20
N00422           3.4090       1.1174     0 0 20
N02474           4.4147       0.9469     0 0 20
N02825           8.2979       4.0881     0 0 20
N00205           6.3233       1.5309     0 0 20
N00638           1.3060       2.9684     0 0 20
N01707           4.5666       1.9673     0 0 20
N02091           19.2564      13.3119    0 0 20
N01696           4.6724       3.0591     0 0 20
N00190           4.4271       0.9234     0 0 20
N01142           13.8997      8.5985     0 0 20
N02269           15.6370      30.9677    0 0 20
N02640           6.1629       3.2639     0 0 20
N01030           4.4639       3.3399     0 0 20
N01505           15.3757      3.3601     0 0 20
N02508           13.9006      9.4781     0 0 20
N00295           6.0489       3.0232     0 0 20
N02145           6.4510       0.7796     0 0 20
N01343           3.4048       1.7218     0 0 20
N00019           6.3041       2.4361     0 0 20
N00965           4.4319       4.2992     0 0 20
N02636           5.9695       7.8677     0 0 20
N01741           3.4555       3.4888     0 0 20
N01658           6.4610       2.1779     0 0 20
N02726           6.1468       11.4006    0 0 20
N00589           13.8265      6.5661     0 0 20
N02693           16.0467      9.2052     0 0 20
N00481           17.6095      0.7793     0 0 20
N00803           6.2690       3.6366     0 0 20
N00427           6.3259       8.8741     0 0 20
N00877           4.2996       0.9387     0 0 20
N00317           19.2977      9.9529     0 0 20
N01379           6.5918       6.0053     0 0 20
N02744           1.0617       3.5067     0 0 20
N01927           8.2348       3.6796     0 0 20
N00084           3.6472       0.8966     0 0 20
N01939           8.8605       12.8840    0 0 20
N02489           3.1048       2.3218     0 0 20
N00125           2.8166       1.9043     0 0 20
N02096           19.3064      11.0634    0 0 20
N02526           15.4400      34.4038    0 0 20
N01709           4.6146       2.4262     0 0 20
N00256           3.3209       2.7052     0 0 20
N00328           3.0942       2.5555     0 0 20
N01548           4.1770       1.0612     0 0 20
N01067           4.4847       2.5681     0 0 20
N01616           3.3361       1.4707     0 0 20
N01902           9.0208       6.6033     0 0 20
N02512           13.7689      9.2003     0 0 20
N00957           3.0816       2.0189     0 0 20
N01972           5.6555       19.2768    0 0 20
N02081           3.7086       1.9394     0 0 20
N01585           19.7753      13.5244    0 0 20
N01137           6.1555       14.7518    0 0 20
N00948           16.8769      31.7900    0 0 20
N00299           5.0759       2.0088     0 0 20
N01176           13.3942      4.6912     0 0 20
N02373           2.5782       2.4032     0 0 20
N02176           3.1116       2.1658     0 0 20
N01503           15.0861      15.0061    0 0 20
N01910           8.4066       5.0162     0 0 20
N02785           6.2821       5.1010     0 0 20
N01306           13.4866      13.6818    0 0 20
N02440           7.6139       8.9667     0 0 20
N02737           6.3257       13.6284    0 0 20
N02093           19.1576      9.3439     0 0 20
N01103           3.6903       0.8280     0 0 20
N02730           6.4362       15.0463    0 0 20
N02831           17.4060      4.2812     0 0 20
N01397           3.7060       13.2617    0 0 20
N01795           5.6935       4.9702     0 0 20
N01833           4.6324       3.4703     0 0 20
N01555           5.0463       4.0667     0 0 20
N01682           5.0854       1.9554     0 0 20
N01077           5.1045       6.4978     0 0 20
N02268           16.9653      14.9850    0 0 20
N01154           15.3154      31.7482    0 0 20
N01703           4.5518       1.9507     0 0 20
N00332           5.8685       2.5096     0 0 20
N01057           15.8899      12.1342    0 0 20
N01693           4.4133       1.7455     0 0 20
N01993           7.7007       2.4328     0 0 20
N01913           6.3026       2.6294     0 0 20
N00347           4.0370       1.2091     0 0 20
N00499           16.2491      0.9382     0 0 20
N00534           6.3000       14.1750    0 0 20
N02834           16.2072      8.3667     0 0 20
N01066           4.5480       2.2774     0 0 20
N00861           16.0414      4.5298     0 0 20
N02000           7.8125       3.9831     0 0 20
N00674           3.3501       3.1414     0 0 20
N02791           6.3689       4.1431     0 0 20
N00624           1.6407       9.0010     0 0 20
N00944           15.0940      34.2455    0 0 20
N00296           6.2991       4.1741     0 0 20
N01688           4.2677       2.1337     0 0 20
N00362           4.0589       2.6444     0 0 20
N02159           5.6599       3.2501     0 0 20
N00987           17.5346      0.8873     0 0 20
N02270           15.5832      31.0051    0 0 20
N00155           13.8613      9.6322     0 0 20
N00482           8.6089       9.0836     0 0 20
N01337           19.7515      29.2462    0 0 20
N00538           6.3613       9.0463     0 0 20
N01581           8.0931       8.9459     0 0 20
N01663           3.4030       0.8970     0 0 20
N02123           6.1306       5.1943     0 0 20
N01044           13.6259      33.6834    0 0 20
N00863           15.2080      17.9939    0 0 20
N00017           4.1945       1.7612     0 0 20
N02650           6.0052       4.3486     0 0 20
N00740           6.3434       12.5288    0 0 20
N00387           4.1412       1.9870     0 0 20
N02483           4.3683       2.9151     0 0 20
N01330           15.3580      5.5970     0 0 20
N00379           1.5103       10.6218    0 0 20
N00242           4.5306       2.1356     0 0 20
N00822           4.5255       1.8139     0 0 20
N01370           3.3660       5.9884     0 0 20
N00835           1.2834       7.0960     0 0 20
N02826           16.9153      9.7042     0 0 20
N01020           13.4149      15.5937    0 0 20
N01412           6.2043       7.2062     0 0 20
N00918           13.2363      21.5134    0 0 20
N01311           3.8802       15.8983    0 0 20
N01716           3.6160       3.6526     0 0 20
N00493           16.0620      1.3726     0 0 20
N00816           4.0986       1.6003     0 0 20
N02288           15.4219      15.1056    0 0 20
N01377           6.3491       3.3582     0 0 20
N00252           4.5999       2.0521     0 0 20
N02662           6.1150       6.7757     0 0 20
N00823           4.5710       1.8765     0 0 20
N01351           1.2351       4.3196     0 0 20
N01258           5.6738       19.3910    0 0 20
N00394           4.1900       1.7765     0 0 20
N01897           8.0838       8.1786     0 0 20
N01524           6.3446       13.8070    0 0 20
N01799           5.7316       4.6012     0 0 20
N02056           6.2243       3.0051     0 0 20
N02501           3.6695       0.8742     0 0 20
N00211           0.9124       2.0000     0 0 20
N01794           5.8039       3.9701     0 0 20
N02409           17.4866      9.0695     0 0 20
N01705           4.7185       1.7663     0 0 20
N02392           3.9032       2.8734     0 0 20
N01076           8.4007       5.1296     0 0 20
N00166           13.8811      7.4187     0 0 20
N02435           3.6807       10.8074    0 0 20
N02595           13.5025      13.0645    0 0 20
N01043           13.6867      30.5574    0 0 20
N00919           13.3679      2.1176     0 0 20
N02656           5.9320       7.2896     0 0 20
N01540           4.5736       1.8739     0 0 20
N00248           4.6012       1.7670     0 0 20
N02097           19.3264      11.4814    0 0 20
N01002           8.5106       17.1230    0 0 20
N02569           15.5119      6.9843     0 0 20
N02816           4.3733       2.1750     0 0 20
N01158           14.8814      34.2232    0 0 20
N02809           6.3226       1.6772     0 0 20
N01122           5.7669       2.5259     0 0 20
N00603           19.6987      17.9511    0 0 20
N01353           15.3764      32.5498    0 0 20
N00436           15.1225      10.7169    0 0 20
N00617           19.5769      17.4027    0 0 20
N00045           6.5845       9.4378     0 0 20
N00226           4.1659       11.1534    0 0 20
N01765           3.1716       3.4446     0 0 20
N00076           16.0806      6.3292     0 0 20
N00224           4.0804       3.9734     0 0 20
N00398           4.2039       1.7874     0 0 20
N00307           5.0007       2.0584     0 0 20
N02724           6.4896       11.0554    0 0 20
N01573           3.2488       4.6121     0 0 20
N00355           3.9861       4.1646     0 0 20
N02237           15.8593      13.0454    0 0 20
N00945           16.7831      29.8182    0 0 20
N00865           15.3730      7.2198     0 0 20
N01547           4.1424       2.6493     0 0 20
N00536           5.3703       7.7512     0 0 20
N02284           15.8747      7.4535     0 0 20
N02406           16.3516      3.4248     0 0 20
N02267           16.7440      6.6693     0 0 20
N00917           13.3169      6.9058     0 0 20
N02311           3.2670       1.9892     0 0 20
N01918           8.6210       8.5446     0 0 20
N01630           3.3487       0.5234     0 0 20
N00131           3.2816       3.1376     0 0 20
N02538           15.8720      26.7229    0 0 20
N00932           15.5151      26.3470    0 0 20
N02167           5.3614       8.2567     0 0 20
N02799           6.2859       13.9773    0 0 20
N01208           6.5133       1.0696     0 0 20
N01714           3.6074       2.8774     0 0 20
N00858           6.5983       8.2893     0 0 20
N01647           7.2048       2.1556     0 0 20
N00983           15.9694      7.6284     0 0 20
N01035           4.5663       2.4932     0 0 20
N02414           15.1240      13.1289    0 0 20
N01803           5.6311       4.9021     0 0 20
N01513           13.9762      7.2261     0 0 20
N01698           3.5870       4.1565     0 0 20
N00260           3.3348       3.9144     0 0 20
N02049           6.1151       6.9197     0 0 20
N02252           15.6605      8.7569     0 0 20
N01117           4.6051       4.8261     0 0 20
N00570           15.3533      5.7097     0 0 20
N02648           5.9736       6.4906     0 0 20
N00393           4.1539       2.6466     0 0 20
N02548           17.0913      8.4533     0 0 20
N00153           2.9314       1.8063     0 0 20
N00588           13.8849      7.0933     0 0 20
N01562           13.9366      8.5464     0 0 20
N01537           3.4964       2.9482     0 0 20
N01472           2.5921       1.9776     0 0 20
N02521           13.5366      14.2205    0 0 20
N02029           8.4608       12.3556    0 0 20
N02132           6.4734       0.5389     0 0 20
N01144           15.2552      15.0501    0 0 20
N02654           6.2791       3.8657     0 0 20
N01319           7.6094       8.1782     0 0 20
N00683           5.9522       10.6135    0 0 20
N02376           2.5640       2.3165     0 0 20
N01523           4.2192       6.6556     0 0 20
N00784           15.1607      25.5926    0 0 20
N02172           6.5698       10.1012    0 0 20
N00908           3.5829       4.6258     0 0 20
N02796           3.3855       1.7411     0 0 20
N02690           15.9967      9.0235     0 0 20
N01879           4.7792       13.2426    0 0 20
N00542           6.6176       8.8530     0 0 20
N00130           3.3132       0.7009     0 0 20
N02778           17.4124      1.8379     0 0 20
N00011           7.2733       1.9213     0 0 20
N00333           4.3496       3.1939     0 0 20
N00413           5.5535       15.5386    0 0 20
N01392           1.2409       4.7361     0 0 20
N01821           5.4570       9.6520     0 0 20
N01284           19.6444      29.0366    0 0 20
N01013           1.5213       3.2554     0 0 20
N00677           5.0902       3.5358     0 0 20
N01742           3.5443       2.9288     0 0 20
N02199           3.7945       2.9709     0 0 20
N02276           15.8934      7.3264     0 0 20
N00253           2.9308       1.6691     0 0 20
N02792           6.3829       3.5179     0 0 20
N01948           3.2325       3.6530     0 0 20
N01608           3.0281       3.1266     0 0 20
N01331           15.4257      0.8868     0 0 20
N00616           19.6713      18.1547    0 0 20
N02141           6.4833       0.5971     0 0 20
N02074           3.9124       11.9214    0 0 20
N00159           6.2559       4.8989     0 0 20
N01340           6.5201       2.1320     0 0 20
N00364           3.9617       1.9253     0 0 20
N00891           3.4720       2.0060     0 0 20
N02134           6.2894       4.3896     0 0 20
N00717           19.3064      9.7540     0 0 20
N02210           4.4380       3.0229     0 0 20
N02071           5.9204       7.5968     0 0 20
N01807           5.6353       4.7034     0 0 20
N01984           8.4561       10.8214    0 0 20
N02068           5.5024       18.3368    0 0 20
N01045           3.5914       8.9273     0 0 20
N01646           3.5470       6.0706     0 0 20
N00137           1.6173       3.4565     0 0 20
N01552           5.0878       3.2266     0 0 20
N01116           4.5275       4.1231     0 0 20
N00066           7.2749       1.9196     0 0 20
N01652           7.5950       0.8223     0 0 20
N00158           3.6238       7.8766     0 0 20
N01826           7.7547       2.8114     0 0 20
N01950           3.6310       2.3026     0 0 20
N00501           8.4970       8.4414     0 0 20
N02318           4.2081       1.9731     0 0 20
N00955           4.2560       3.3490     0 0 20
N00150           3.0883       2.6438     0 0 20
N00864           15.3002      10.9594    0 0 20
N00095           3.4415       4.0228     0 0 20
N01454           3.5220       1.1028     0 0 20
N01520           3.8118       1.6675     0 0 20
N00003           3.4628       5.1831     0 0 20
N01574           3.4913       2.9935     0 0 20
N00289           4.5299       2.9369     0 0 20
N02626           4.0236       12.2510    0 0 20
N02196           3.8086       3.2106     0 0 20
N01300           2.8964       4.3960     0 0 20
N01210           15.3541      8.2591     0 0 20
N01350           1.1070       3.1834     0 0 20
N01512           6.4440       14.8132    0 0 20
N02369           2.4801       2.2496     0 0 20
N01371           7.8495       6.0843     0 0 20
N01543           3.1696       2.6071     0 0 20
N01936           8.9460       15.4493    0 0 20
N00556           16.2484      9.5444     0 0 20
N01747           3.0192       5.6470     0 0 20
N00026           4.1419       3.6526     0 0 20
N01869           5.7304       1.9951     0 0 20
N02319           4.1181       1.3902     0 0 20
N02813           4.2352       2.5565     0 0 20
N00356           4.0250       3.1377     0 0 20
N01856           4.6736       2.8012     0 0 20
N01629           2.9361       1.3614     0 0 20
N02840           17.5827      4.7058     0 0 20
N02054           5.5642       16.9513    0 0 20
N02817           4.4233       1.4201     0 0 20
N02327           3.7595       3.4482     0 0 20
N01409           7.8276       7.2625     0 0 20
N01305           13.5496      17.4935    0 0 20
N00813           4.0539       7.1853     0 0 20
N00408           15.3533      3.4043     0 0 20
N01216           15.1309      34.7119    0 0 20
N01731           3.6013       3.2088     0 0 20
N01215           14.7194      13.5088    0 0 20
N01621           3.7981       1.6365     0 0 20
N02064           5.3046       43.9070    0 0 20
N00027           4.0613       2.5604     0 0 20
N01597           13.8581      7.9583     0 0 20
N02389           3.7945       3.2284     0 0 20
N00503           16.2883      2.4913     0 0 20
N02124           6.1094       14.7504    0 0 20
N01797           5.0420       2.2235     0 0 20
N01413           6.2778       15.8276    0 0 20
N01926           8.2138       2.2704     0 0 20
N01554           4.9756       4.3963     0 0 20
N00163           3.5967       8.8230     0 0 20
N00367           1.5824       8.4350     0 0 20
N01739           3.4496       2.6406     0 0 20
N00679           5.0932       5.2603     0 0 20
N00188           4.4431       4.7842     0 0 20
N01691           3.5526       2.9268     0 0 20
N02752           15.4346      34.0258    0 0 20
N02466           6.3642       3.9917     0 0 20
N02170           5.2895       8.2309     0 0 20
N01313           3.7220       19.1877    0 0 20
N01842           5.5418       14.5312    0 0 20
N02473           4.4752       0.6514     0 0 20
N00165           13.6274      15.1184    0 0 20
N01564           13.8913      7.0799     0 0 20
N02761           4.7415       1.8284     0 0 20
N02835           16.1472      8.5659     0 0 20
N02838           16.3834      3.8694     0 0 20
N02063           5.8018       9.6502     0 0 20
N01204           6.4981       14.2602    0 0 20
N02305           15.0299      30.9644    0 0 20
N00951           16.7331      25.0511    0 0 20
N00087           1.1051       3.5586     0 0 20
N02695           15.8516      28.0161    0 0 20
N01659           4.4327       0.6939     0 0 20
N00612           18.8770      8.0515     0 0 20
N00801           6.4494       0.5000     0 0 20
N01997           5.2813       6.1166     0 0 20
N01028           3.1828       2.5057     0 0 20
N01660           4.5134       0.9386     0 0 20
N01039           4.9052       2.1356     0 0 20
N00799           4.7317       1.8219     0 0 20
N01866           5.7845       2.5287     0 0 20
N01873           4.7717       0.8359     0 0 20
N00479           8.6613       8.0984     0 0 20
N00440           15.0744      15.5846    0 0 20
N01270           3.6710       1.9080     0 0 20
N01975           5.5600       16.9264    0 0 20
N00622           4.2455       4.6344     0 0 20
N01615           1.3868       2.6908     0 0 20
N01205           6.5903       22.2478    0 0 20
N02262           15.6962      5.4884     0 0 20
N02575           2.9261       1.5922     0 0 20
N01806           5.9616       4.1206     0 0 20
N01071           7.9066       3.7085     0 0 20
N01882           4.3695       7.3824     0 0 20
N02625           4.1436       9.2903     0 0 20
N01251           6.1206       5.2434     0 0 20
N00286           4.5521       2.5484     0 0 20
N00567           15.3715      7.5407     0 0 20
N00911           13.4613      6.7501     0 0 20
N02811           4.2512       5.5277     0 0 20
N00625           1.5551       6.5293     0 0 20
N02434           1.2168       3.7414     0 0 20
N01710           4.5018       1.9830     0 0 20
N00921           13.2351      22.5785    0 0 20
N00604           15.8399      13.6708    0 0 20
N02774           18.8134      7.1765     0 0 20
N02617           3.4130       0.8240     0 0 20
N01880           4.7759       11.7659    0 0 20
N02078           6.0293       9.6168     0 0 20
N01599           6.1934       12.6583    0 0 20
N01249           1.6599       2.4196     0 0 20
N00378           1.4043       5.9167     0 0 20
N02036           8.4341       10.1997    0 0 20
N02649           6.1439       6.6731     0 0 20
N00193           4.2624       1.0144     0 0 20
N01661           3.8358       3.6930     0 0 20
N02116           6.3626       3.0503     0 0 20
N00352           3.9608       4.9870     0 0 20
N00423           6.3312       8.4698     0 0 20
N00824           4.5796       3.5246     0 0 20
N02428           3.8118       2.2984     0 0 20
N01894           7.7507       15.8459    0 0 20
N01904           8.6341       8.1348     0 0 20
N02615           4.7360       5.3624     0 0 20
N01942           3.6910       2.1803     0 0 20
N01667           6.2434       6.1521     0 0 20
N01101           3.8768       1.1360     0 0 20
N00623           1.7078       10.8439    0 0 20
N00548           6.3573       8.7203     0 0 20
N00882           4.2234       1.0148     0 0 20
N01084           4.6149       1.6625     0 0 20
N01448           5.6011       12.4407    0 0 20
N00916           13.4510      0.5000     0 0 20
N01900           8.9761       7.7863     0 0 20
N01764           3.1987       2.7813     0 0 20
N02805           5.1947       10.2302    0 0 20
N01859           5.9250       4.0905     0 0 20
N02750           15.4123      30.9400    0 0 20
N01317           13.5366      13.5549    0 0 20
N02053           5.6906       7.7203     0 0 20
N01743           3.1269       3.3699     0 0 20
N02083           3.5581       0.9602     0 0 20
N00018           4.6090       4.9105     0 0 20
N01655           6.3694       0.5800     0 0 20
N02537           15.7710      22.8460    0 0 20
N00999           15.9007      7.0319     0 0 20
N01702           4.5866       1.9351     0 0 20
N00096           3.4932       3.4662     0 0 20
N00860           16.0299      4.8697     0 0 20
N01808           5.6711       4.6083     0 0 20
N02277           15.8794      5.0991     0 0 20
N02126           6.2198       11.6449    0 0 20
N02211           4.2128       2.8157     0 0 20
N01534           13.8765      9.0396     0 0 20
N02214           15.9311      7.5628     0 0 20
N01759           3.4874       3.0080     0 0 20
N01665           6.4651       7.1092     0 0 20
N00873           3.5857       0.6513     0 0 20
N01036           4.4999       2.9669     0 0 20
N01683           4.2777       2.0638     0 0 20
N00455           6.5481       9.0185     0 0 20
N02296           15.4919      21.7477    0 0 20
N02087           3.5520       1.2187     0 0 20
N01577           3.0597       3.0150     0 0 20
N00265           3.3536       2.6468     0 0 20
N00040           6.2765       2.4606     0 0 20
N01677           3.8608       1.0583     0 0 20
N00411           15.3439      5.5174     0 0 20
N00373           1.0764       3.3371     0 0 20
N02620           3.2917       2.0341     0 0 20
N01334           4.5047       2.8425     0 0 20
N00189           4.3956       0.7310     0 0 20
N00661           2.9309       2.2387     0 0 20
N01725           3.4766       8.5854     0 0 20
N01428           5.9251       4.4976     0 0 20
N02619           4.6346       3.7368     0 0 20
N02716           4.3366       2.8304     0 0 20
N01883           4.2836       9.5903     0 0 20
N01780           3.4513       3.2237     0 0 20
N01779           3.4737       3.1155     0 0 20
N01536           13.5225      6.8323     0 0 20
N01678           3.5537       1.7931     0 0 20
N00667           14.9719      22.3355    0 0 20
N01483           4.1576       1.5413     0 0 20
N00032           15.9147      7.6835     0 0 20
N02303           15.5332      23.4856    0 0 20
N02101           19.4481      18.1847    0 0 20
N01594           13.8465      9.0347     0 0 20
N00160           3.2335       2.9844     0 0 20
N01128           4.1394       1.0989     0 0 20
N02449           5.9207       9.7415     0 0 20
N01863           5.7945       2.5187     0 0 20
N01126           1.7380       3.4993     0 0 20
N00632           1.1800       2.6922     0 0 20
N02556           17.1707      13.4772    0 0 20
N00057           6.3605       5.6072     0 0 20
N00695           15.8760      12.7202    0 0 20
N01484           4.0556       8.0619     0 0 20
N01914           6.2385       4.5374     0 0 20
N02436           3.8676       20.4280    0 0 20
N02136           6.3942       6.9787     0 0 20
N02630           4.0756       4.6219     0 0 20
N02503           15.9917      5.9239     0 0 20
N01837           5.4370       6.5212     0 0 20
N00180           4.4047       0.8593     0 0 20
N02139           6.3499       2.7388     0 0 20
N02715           4.2560       2.5357     0 0 20
N02162           5.3397       6.9993     0 0 20
N02523           13.5496      14.5422    0 0 20
N01384           1.1931       3.2398     0 0 20
N00450           6.4112       7.7049     0 0 20
N02138           6.5211       6.8725     0 0 20
N00390           4.1675       5.6639     0 0 20
N02001           7.8225       3.8106     0 0 20
N01867           5.7169       2.4144     0 0 20
N00434           15.3914      5.9470     0 0 20
N02671           3.6138       9.0215     0 0 20
N02705           4.6048       0.9695     0 0 20
N01145           15.2970      28.7241    0 0 20
N02443           3.2811       1.9751     0 0 20
N02775           18.8546      7.5354     0 0 20
N02250           15.8317      8.5355     0 0 20
N01388           2.7943       1.9266     0 0 20
N02367           2.4577       2.0000     0 0 20
N00396           4.1539       3.0343     0 0 20
N02823           3.2808       1.3908     0 0 20
N01730           3.4372       2.6529     0 0 20
N01032           4.5899       3.6530     0 0 20
N01961           5.6962       21.6642    0 0 20
N01352           1.3543       6.8042     0 0 20
N00392           4.1379       3.7371     0 0 20
N02171           5.2122       10.6389    0 0 20
N01954           3.1412       2.0576     0 0 20
N02240           15.7562      7.8608     0 0 20
N02499           5.9074       3.8295     0 0 20
N01770           3.3490       3.0721     0 0 20
N02685           3.9032       14.4415    0 0 20
N00279           4.8046       2.2362     0 0 20
N01809           5.7811       4.0985     0 0 20
N01583           8.1231       9.2896     0 0 20
N02131           4.1619       3.0929     0 0 20
N02028           8.4968       12.2334    0 0 20
N00546           6.3413       8.6036     0 0 20
N02007           7.9672       5.1372     0 0 20
N01050           15.7450      14.2031    0 0 20
N01289           6.2940       6.1015     0 0 20
N01575           3.5713       2.9135     0 0 20
N00385           4.1263       1.3820     0 0 20
N00642           1.6932       2.2261     0 0 20
N02568           15.9294      5.9930     0 0 20
N02594           13.5342      5.7735     0 0 20
N00209           6.4694       1.8166     0 0 20
N00653           1.1124       3.1443     0 0 20
N01446           5.6353       4.6682     0 0 20
N01166           13.7781      9.8764     0 0 20
N00699           19.6891      28.3482    0 0 20
N02285           16.0909      7.6176     0 0 20
N02302           15.5732      31.0533    0 0 20
N01440           6.0116       3.1815     0 0 20
N00065           7.2189       2.3345     0 0 20
N02106           19.2764      10.7325    0 0 20
N02209           4.5804       3.4629     0 0 20
N01325           16.1050      3.4766     0 0 20
N01383           1.1570       3.0750     0 0 20
N01212           15.2304      19.7351    0 0 20
N02128           6.0894       5.7777     0 0 20
N00512           16.1836      1.5164     0 0 20
N00093           3.5948       5.5533     0 0 20
N01944           3.3390       2.2544     0 0 20
N00024           15.0976      28.2372    0 0 20
N00274           5.0708       4.5195     0 0 20
N00271           3.1750       4.3689     0 0 20
N02179           2.6421       1.9276     0 0 20
N02787           6.1960       2.9263     0 0 20
N00094           3.5215       5.1334     0 0 20
N00233           1.2460       2.9522     0 0 20
N00034           15.8629      7.5195     0 0 20
N00857           16.2849      0.5000     0 0 20
N01467           3.2211       2.0798     0 0 20
N02447           6.1107       14.7557    0 0 20
N01450           3.5702       3.2798     0 0 20
N00872           3.6111       0.9764     0 0 20
N01422           5.9468       4.1095     0 0 20
N01722           3.3525       4.4765     0 0 20
N02098           19.4464      13.8170    0 0 20
N01804           5.7111       6.1733     0 0 20
N00208           6.4534       1.4865     0 0 20
N02454           4.6646       2.4772     0 0 20
N00486           16.2478      1.0471     0 0 20
N01995           5.3340       6.5266     0 0 20
N00480           8.5665       9.0295     0 0 20
N00513           16.0420      1.3926     0 0 20
N00090           3.6360       10.4669    0 0 20
N01335           19.8053      25.6518    0 0 20
N01940           4.6956       1.2712     0 0 20
N01496           2.8741       7.1623     0 0 20
N02158           6.5050       0.9176     0 0 20
N00825           4.6816       4.3422     0 0 20
N00620           13.4373      16.9347    0 0 20
N00690           16.0250      9.3634     0 0 20
N00915           13.3810      1.8621     0 0 20
N00240           4.5788       1.6986     0 0 20
N01695           4.5318       1.9530     0 0 20
N00368           1.4603       9.0913     0 0 20
N00644           1.5791       2.2930     0 0 20
N01694           4.6124       2.4284     0 0 20
N01932           6.3498       1.9973     0 0 20
N02308           15.0615      29.6279    0 0 20
N00273           4.9712       4.5585     0 0 20
N01649           7.3224       1.8721     0 0 20
N01495           2.8882       3.3504     0 0 20
N00334           4.2507       2.9114     0 0 20
N00697           3.9308       14.3062    0 0 20
N02609           3.7814       3.4236     0 0 20
N00828           4.7403       2.8239     0 0 20
N01209           6.5070       7.9962     0 0 20
N02469           6.3382       5.2459     0 0 20
N00259           3.3864       2.6682     0 0 20
N02616           3.2584       1.4353     0 0 20
N00210           6.4341       3.9975     0 0 20
N01791           5.2107       2.0148     0 0 20
N00833           1.3051       5.8473     0 0 20
N02432           1.2266       2.9561     0 0 20
N02644           6.1902       7.2196     0 0 20
N01486           4.4176       1.0683     0 0 20
N00214           4.6105       1.6670     0 0 20
N02596           13.5025      7.1135     0 0 20
N01011           16.1912      5.2455     0 0 20
N01033           4.5051       9.0576     0 0 20
N01937           8.8551       14.3382    0 0 20
N01053           15.5070      26.2451    0 0 20
N01669           6.2575       6.1380     0 0 20
N01756           3.1877       3.2436     0 0 20
N00701           19.5581      4.1881     0 0 20
N01595           13.8912      9.4140     0 0 20
N00507           16.3194      0.5276     0 0 20
N00381           3.2001       3.6844     0 0 20
N00818           4.3548       7.3366     0 0 20
N01406           13.5992      14.0701    0 0 20
N00815           4.6052       5.3688     0 0 20
N01969           5.3524       14.8251    0 0 20
N02470           6.3542       3.7315     0 0 20
N02751           15.3520      30.7588    0 0 20
N00168           4.3825       0.7441     0 0 20
N00511           16.2653      1.2953     0 0 20
N00827           4.5621       3.4441     0 0 20
N01439           6.0340       3.6767     0 0 20
N00036           15.9910      5.7095     0 0 20
N00998           15.9471      6.4154     0 0 20
N01314           3.6921       13.6141    0 0 20
N02247           15.7610      11.9128    0 0 20
N01185           13.8365      9.2094     0 0 20
N01793           5.2709       4.4814     0 0 20
N02714           4.0312       1.6289     0 0 20
N02493           3.0529       2.1919     0 0 20
N02509           13.6526      6.9907     0 0 20
N00878           4.2171       1.0211     0 0 20
N00218           4.6257       3.4732     0 0 20
N00164           13.8511      7.6090     0 0 20
N02433           1.1657       2.6009     0 0 20
N01530           16.1613      7.9794     0 0 20
N00304           5.0830       1.9578     0 0 20
N00515           15.9481      4.4316     0 0 20
N00930           15.2019      26.9082    0 0 20
N00997           15.9753      7.4068     0 0 20
N01965           5.3024       7.1994     0 0 20
N02491           1.1439       3.4393     0 0 20
N01316           13.6582      4.7877     0 0 20
N01685           4.2477       2.0000     0 0 20
N01966           5.0950       4.7371     0 0 20
N00031           15.9971      4.7637     0 0 20
N00191           4.5071       0.6195     0 0 20
N01735           6.3591       0.9260     0 0 20
N02245           15.5289      6.1187     0 0 20
N00272           5.1310       5.3350     0 0 20
N01967           5.0802       3.5842     0 0 20
N02292           14.7294      14.8829    0 0 20
N02563           13.5579      15.0807    0 0 20
N00454           6.3625       6.3198     0 0 20
N02033           8.5675       12.6863    0 0 20
N02667           6.1753       2.5737     0 0 20
N01748           2.9464       2.6701     0 0 20
N00331           3.8072       2.1808     0 0 20
N00414           7.8254       26.6954    0 0 20
N02032           8.7138       14.1187    0 0 20
N01715           3.6074       2.8774     0 0 20
N00377           4.1180       2.0814     0 0 20
N00186           3.2360       2.0605     0 0 20
N02429           6.2526       3.8867     0 0 20
N00859           15.9394      6.1126     0 0 20
N00525           15.9797      5.3276     0 0 20
N02299           15.6219      5.7928     0 0 20
N00676           4.7557       0.5643     0 0 20
N01098           3.9129       1.1803     0 0 20
N02668           6.1644       3.5148     0 0 20
N02082           3.6181       0.9770     0 0 20
N00015           2.9765       3.0671     0 0 20
N01432           5.1801       1.9449     0 0 20
N01822           4.6346       4.1003     0 0 20
N00952           16.6624      18.6073    0 0 20
N01411           3.3564       6.3421     0 0 20
N01934           4.7566       2.8620     0 0 20
N01708           4.5042       2.8010     0 0 20
N01455           3.5503       1.0307     0 0 20
N02564           3.9850       3.1979     0 0 20
N00654           1.0389       3.4710     0 0 20
N02108           19.2847      9.5826     0 0 20
N02586           6.4615       11.0653    0 0 20
N00933           1.6518       3.3481     0 0 20
N00962           4.4221       1.0099     0 0 20
N01132           4.1570       1.2409     0 0 20
N02682           6.0925       15.0724    0 0 20
N00433           15.3815      10.4438    0 0 20
N01390           2.8814       1.8395     0 0 20
N00303           5.2584       3.0171     0 0 20
N00122           3.2375       2.5874     0 0 20
N00184           3.2029       2.0834     0 0 20
N02510           13.6771      8.5879     0 0 20
N01851           5.9391       4.3685     0 0 20
N00550           8.1056       9.1457     0 0 20
N01941           4.6332       1.2308     0 0 20
N02565           4.0017       2.4592     0 0 20
N00456           16.2665      1.7278     0 0 20
N01777           3.4101       3.5894     0 0 20
N00484           16.2749      0.8984     0 0 20
N02272           16.7536      7.5073     0 0 20
N01825           8.0109       6.2394     0 0 20
N00428           6.5981       8.3586     0 0 20
N00543           6.7279       7.7923     0 0 20
N00641           3.3721       0.5000     0 0 20
N00849           17.6207      0.6533     0 0 20
N02236           15.8549      16.5408    0 0 20
N01198           13.3221      2.0000     0 0 20
N02652           6.1027       6.6441     0 0 20
N01631           3.2632       0.9833     0 0 20
N02084           3.5737       1.2175     0 0 20
N01717           3.6229       3.9449     0 0 20
N02147           6.4494       0.5000     0 0 20
N00924           13.4466      15.3250    0 0 20
N00627           1.7137       10.2737    0 0 20
N00431           15.2086      9.0053     0 0 20
N00241           4.4894       1.8500     0 0 20
N01029           3.1496       2.6888     0 0 20
N00308           5.9887       3.7165     0 0 20
N01622           3.3830       1.0637     0 0 20
N00111           2.8956       1.9065     0 0 20
N00199           6.3918       1.4812     0 0 20
N00902           3.0093       1.3029     0 0 20
N00293           6.2524       2.0462     0 0 20
N02585           6.3234       13.8998    0 0 20
N00403           3.3953       1.2662     0 0 20
N00996           16.0476      6.1158     0 0 20
N01535           13.6210      6.9012     0 0 20
N01280           8.5932       15.6381    0 0 20
N00640           1.3860       3.3292     0 0 20
N00706           19.5224      29.9909    0 0 20
N02552           17.0066      23.5860    0 0 20
N01586           19.8113      10.9214    0 0 20
N01553           5.1233       5.2190     0 0 20
N00370           1.2334       5.9418     0 0 20
N01218           15.0799      33.6287    0 0 20
N02829           16.6124      11.8861    0 0 20
N00134           3.3671       3.2048     0 0 20
N01393           3.5332       6.1317     0 0 20
N00494           16.1420      1.3794     0 0 20
N01372           7.7862       8.1947     0 0 20
N02550           17.0207      27.9456    0 0 20
N02707           4.6460       1.0665     0 0 20
N01955           3.3160       2.1513     0 0 20
N00954           4.1660       3.4016     0 0 20
N02776           8.1224       22.0423    0 0 20
N02388           2.9274       1.3701     0 0 20
N00571           15.3858      4.0408     0 0 20

[OUTFALLS]
OUT01            0.9024       NORMAL  NO
OUT02            3.4115       NORMAL  NO
OUT03            7.6494       NORMAL  NO
OUT04            4.2377       NORMAL  NO
OUT05            5.4040       NORMAL  NO
OUT06            13.3121      NORMAL  NO
OUT07            5.6704       NORMAL  NO
OUT08            14.9722      NORMAL  NO
OUT09            2.4477       NORMAL  NO
OUT10            2.5597       NORMAL  NO
OUT11            5.0806       NORMAL  NO
OUT12            14.6394      NORMAL  NO
OUT13            16.6024      NORMAL  NO
OUT14            3.6475       NORMAL  NO
OUT15            8.1738       NORMAL  NO
OUT16            15.4334      NORMAL  NO
OUT17            18.8034      NORMAL  NO
OUT18            2.9644       NORMAL  NO
OUT19            3.4620       NORMAL  NO
OUT20            5.1699       NORMAL  NO
OUT21            15.3819      NORMAL  NO
OUT22            2.6297       NORMAL  NO
OUT23            7.0406       NORMAL  NO
OUT24            5.8291       NORMAL  NO
OUT25            13.0709      NORMAL  NO
OUT26            5.2946       NORMAL  NO
OUT27            5.2946       NORMAL  NO
OUT28            5.2946       NORMAL  NO
OUT29            5.2946       NORMAL  NO
OUT30            5.2946       NORMAL  NO
OUT31            5.2946       NORMAL  NO
OUT32            5.2946       NORMAL  NO
OUT33            5.2946       NORMAL  NO
OUT34            5.2946       NORMAL  NO
OUT35            5.2946       NORMAL  NO
OUT36            5.2946       NORMAL  NO
OUT37            5.2946       NORMAL  NO
OUT38            5.2946       NORMAL  NO
OUT39            5.2946       NORMAL  NO
OUT40            5.2946       NORMAL  NO
OUT41            5.2946       NORMAL  NO
OUT42            5.2946       NORMAL  NO
OUT43            5.2946       NORMAL  NO
OUT44            5.2946       NORMAL  NO
OUT45            5.2946       NORMAL  NO
OUT46            5.2946       NORMAL  NO
OUT47            5.2946       NORMAL  NO
OUT48            5.2946       NORMAL  NO
OUT49            5.2946       NORMAL  NO
OUT50            5.2946       NORMAL  NO
OUT51            5.2946       NORMAL  NO
OUT52            5.2946       NORMAL  NO
OUT53            5.2946       NORMAL  NO
OUT54            5.2946       NORMAL  NO
OUT55            5.2946       NORMAL  NO
OUT56            5.2946       NORMAL  NO
OUT57            5.2946       NORMAL  NO
OUT58            5.2946       NORMAL  NO
OUT59            5.2946       NORMAL  NO
OUT60            5.2946       NORMAL  NO
OUT61            5.2946       NORMAL  NO
OUT62            5.2946       NORMAL  NO
OUT63            5.2946       NORMAL  NO
OUT64            5.2946       NORMAL  NO
OUT65            5.2946       NORMAL  NO
OUT66            5.2946       NORMAL  NO
OUT67            5.2946       NORMAL  NO
OUT68            5.2946       NORMAL  NO
OUT69            5.2946       NORMAL  NO
OUT70            5.2946       NORMAL  NO
OUT71            5.2946       NORMAL  NO
OUT72            5.2946       NORMAL  NO
OUT73            5.2946       NORMAL  NO
OUT74            5.2946       NORMAL  NO
OUT75            5.2946       NORMAL  NO
OUT76            5.2946       NORMAL  NO
OUT77            5.2946       NORMAL  NO
OUT78            5.2946       NORMAL  NO
OUT79            5.2946       NORMAL  NO
OUT80            5.2946       NORMAL  NO
OUT81            5.2946       NORMAL  NO
OUT82            5.2946       NORMAL  NO
OUT83            5.2946       NORMAL  NO
OUT84            5.2946       NORMAL  NO
OUT85            5.2946       NORMAL  NO
OUT86            5.2946       NORMAL  NO
OUT87            5.2946       NORMAL  NO
OUT88            5.2946       NORMAL  NO
OUT89            5.2946       NORMAL  NO
OUT90            5.2946       NORMAL  NO
OUT91            5.2946       NORMAL  NO
OUT92            5.2946       NORMAL  NO
OUT93            5.2946       NORMAL  NO
OUT94            5.2946       NORMAL  NO
OUT95            5.2946       NORMAL  NO
OUT96            5.2946       NORMAL  NO
OUT97            5.2946       NORMAL  NO
OUT98            5.2946       NORMAL  NO
OUT99            5.2946       NORMAL  NO
OUT100           5.2946       NORMAL  NO
OUT101           5.2946       NORMAL  NO
OUT102           5.2946       NORMAL  NO
OUT103           5.2946       NORMAL  NO
OUT104           5.2946       NORMAL  NO
OUT105           5.2946       NORMAL  NO
OUT106           5.2946       NORMAL  NO
OUT107           5.2946       NORMAL  NO
OUT108           5.2946       NORMAL  NO
OUT109           5.2946       NORMAL  NO
OUT110           5.2946       NORMAL  NO
OUT111           5.2946       NORMAL  NO
OUT112           5.2946       NORMAL  NO
OUT113           5.2946       NORMAL  NO
OUT114           5.2946       NORMAL  NO
OUT115           5.2946       NORMAL  NO
OUT116           5.2946       NORMAL  NO
OUT117           5.2946       NORMAL  NO
OUT118           5.2946       NORMAL  NO
OUT119           5.2946       NORMAL  NO
OUT120           5.2946       NORMAL  NO
OUT121           5.2946       NORMAL  NO
OUT122           5.2946       NORMAL  NO
OUT123           5.2946       NORMAL  NO
OUT124           5.2946       NORMAL  NO
OUT125           5.2946       NORMAL  NO
OUT126           5.2946       NORMAL  NO
OUT127           5.2946       NORMAL  NO
OUT128           5.2946       NORMAL  NO
OUT129           5.2946       NORMAL  NO
OUT130           5.2946       NORMAL  NO
OUT131           5.2946       NORMAL  NO
OUT132           5.2946       NORMAL  NO
OUT133           5.2946       NORMAL  NO
OUT134           5.2946       NORMAL  NO
OUT135           5.2946       NORMAL  NO
OUT136           5.2946       NORMAL  NO
OUT137           5.2946       NORMAL  NO
OUT138           5.2946       NORMAL  NO
OUT139           5.2946       NORMAL  NO
OUT140           5.2946       NORMAL  NO
OUT141           5.2946       NORMAL  NO
OUT142           5.2946       NORMAL  NO
OUT143           5.2946       NORMAL  NO
OUT144           5.2946       NORMAL  NO
OUT145           5.2946       NORMAL  NO
OUT146           5.2946       NORMAL  NO
OUT147           5.2946       NORMAL  NO
OUT148           5.2946       NORMAL  NO
OUT149           5.2946       NORMAL  NO
OUT150           5.2946       NORMAL  NO
OUT151           5.2946       NORMAL  NO
OUT152           5.2946       NORMAL  NO
OUT153           5.2946       NORMAL  NO
OUT154           5.2946       NORMAL  NO
OUT155           5.2946       NORMAL  NO
OUT156           5.2946       NORMAL  NO
OUT157           5.2946       NORMAL  NO
OUT158           5.2946       NORMAL  NO
OUT159           5.2946       NORMAL  NO
OUT160           5.2946       NORMAL  NO
OUT161           5.2946       NORMAL  NO
OUT162           5.2946       NORMAL  NO
OUT163           5.2946       NORMAL  NO
OUT164           5.2946       NORMAL  NO
OUT165           5.2946       NORMAL  NO
OUT166           5.2946       NORMAL  NO
OUT167           5.2946       NORMAL  NO
OUT168           5.2946       NORMAL  NO
OUT169           5.2946       NORMAL  NO
OUT170           5.2946       NORMAL  NO
OUT171           5.2946       NORMAL  NO
OUT172           5.2946       NORMAL  NO
OUT173           5.2946       NORMAL  NO
OUT174           5.2946       NORMAL  NO
OUT175           5.2946       NORMAL  NO
OUT176           5.2946       NORMAL  NO
OUT177           5.2946       NORMAL  NO
OUT178           5.2946       NORMAL  NO
OUT179           5.2946       NORMAL  NO
OUT180           5.2946       NORMAL  NO
OUT181           5.2946       NORMAL  NO
OUT182           5.2946       NORMAL  NO
OUT183           5.2946       NORMAL  NO
OUT184           5.2946       NORMAL  NO
OUT185           5.2946       NORMAL  NO
OUT186           5.2946       NORMAL  NO
OUT187           5.2946       NORMAL  NO
OUT188           5.2946       NORMAL  NO
OUT189           5.2946       NORMAL  NO
OUT190           5.2946       NORMAL  NO
OUT191           5.2946       NORMAL  NO
OUT192           5.2946       NORMAL  NO
OUT193           5.2946       NORMAL  NO
OUT194           5.2946       NORMAL  NO
OUT195           5.2946       NORMAL  NO
OUT196           5.2946       NORMAL  NO
OUT197           5.2946       NORMAL  NO
OUT198           5.2946       NORMAL  NO
OUT199           5.2946       NORMAL  NO
OUT200           5.2946       NORMAL  NO
OUT201           5.2946       NORMAL  NO
OUT202           5.2946       NORMAL  NO
OUT203           5.2946       NORMAL  NO
OUT204           5.2946       NORMAL  NO
OUT205           5.2946       NORMAL  NO
OUT206           5.2946       NORMAL  NO
OUT207           5.2946       NORMAL  NO
OUT208           5.2946       NORMAL  NO
OUT209           5.2946       NORMAL  NO
OUT210           5.2946       NORMAL  NO
OUT211           5.2946       NORMAL  NO
OUT212           5.2946       NORMAL  NO
OUT213           5.2946       NORMAL  NO
OUT214           5.2946       NORMAL  NO
OUT215           5.2946       NORMAL  NO
OUT216           5.2946       NORMAL  NO
OUT217           5.2946       NORMAL  NO
OUT218           5.2946       NORMAL  NO
OUT219           5.2946       NORMAL  NO
OUT220           5.2946       NORMAL  NO
OUT221           5.2946       NORMAL  NO
OUT222           5.2946       NORMAL  NO
OUT223           5.2946       NORMAL  NO
OUT224           5.2946       NORMAL  NO
OUT225           5.2946       NORMAL  NO
OUT226           5.2946       NORMAL  NO
OUT227           5.2946       NORMAL  NO
OUT228           5.2946       NORMAL  NO
OUT229           5.2946       NORMAL  NO
OUT230           5.2946       NORMAL  NO
OUT231           5.2946       NORMAL  NO
OUT232           5.2946       NORMAL  NO
OUT233           5.2946       NORMAL  NO
OUT234           5.2946       NORMAL  NO
OUT235           5.2946       NORMAL  NO
OUT236           5.2946       NORMAL  NO
OUT237           5.2946       NORMAL  NO
OUT238           5.2946       NORMAL  NO
OUT239           5.2946       NORMAL  NO
OUT240           5.2946       NORMAL  NO
OUT241           5.2946       NORMAL  NO
OUT242           5.2946       NORMAL  NO
OUT243           5.2946       NORMAL  NO
OUT244           5.2946       NORMAL  NO
OUT245           5.2946       NORMAL  NO
OUT246           5.2946       NORMAL  NO
OUT247           5.2946       NORMAL  NO
OUT248           5.2946       NORMAL  NO
OUT249           5.2946       NORMAL  NO
OUT250           5.2946       NORMAL  NO
OUT251           5.2946       NORMAL  NO
OUT252           5.2946       NORMAL  NO
OUT253           5.2946       NORMAL  NO
OUT254           5.2946       NORMAL  NO
OUT255           5.2946       NORMAL  NO
OUT256           5.2946       NORMAL  NO
OUT257           5.2946       NORMAL  NO
OUT258           5.2946       NORMAL  NO
OUT259           5.2946       NORMAL  NO
OUT260           5.2946       NORMAL  NO
OUT261           5.2946       NORMAL  NO
OUT262           5.2946       NORMAL  NO
OUT263           5.2946       NORMAL  NO
OUT264           5.2946       NORMAL  NO
OUT265           5.2946       NORMAL  NO
OUT266           5.2946       NORMAL  NO
OUT267           5.2946       NORMAL  NO
OUT268           5.2946       NORMAL  NO
OUT269           5.2946       NORMAL  NO
OUT270           5.2946       NORMAL  NO
OUT271           5.2946       NORMAL  NO
OUT272           5.2946       NORMAL  NO
OUT273           5.2946       NORMAL  NO
OUT274           5.2946       NORMAL  NO
OUT275           5.2946       NORMAL  NO
OUT276           5.2946       NORMAL  NO
OUT277           5.2946       NORMAL  NO
OUT278           5.2946       NORMAL  NO
OUT279           5.2946       NORMAL  NO
OUT280           5.2946       NORMAL  NO
OUT281           5.2946       NORMAL  NO
OUT282           5.2946       NORMAL  NO
OUT283           5.2946       NORMAL  NO
OUT284           5.2946       NORMAL  NO
OUT285           5.2946       NORMAL  NO
OUT286           5.2946       NORMAL  NO
OUT287           5.2946       NORMAL  NO
OUT288           5.2946       NORMAL  NO
OUT289           5.2946       NORMAL  NO
OUT290           5.2946       NORMAL  NO
OUT291           5.2946       NORMAL  NO
OUT292           5.2946       NORMAL  NO
OUT293           5.2946       NORMAL  NO
OUT294           5.2946       NORMAL  NO
OUT295           5.2946       NORMAL  NO
OUT296           5.2946       NORMAL  NO
OUT297           5.2946       NORMAL  NO
OUT298           5.2946       NORMAL  NO
OUT299           5.2946       NORMAL  NO
OUT300           5.2946       NORMAL  NO
OUT301           5.2946       NORMAL  NO
OUT302           5.2946       NORMAL  NO
OUT303           5.2946       NORMAL  NO
OUT304           5.2946       NORMAL  NO
OUT305           5.2946       NORMAL  NO
OUT306           5.2946       NORMAL  NO
OUT307           5.2946       NORMAL  NO
OUT308           5.2946       NORMAL  NO
OUT309           5.2946       NORMAL  NO
OUT310           5.2946       NORMAL  NO
OUT311           5.2946       NORMAL  NO
OUT312           5.2946       NORMAL  NO
OUT313           5.2946       NORMAL  NO
OUT314           5.2946       NORMAL  NO
OUT315           5.2946       NORMAL  NO
OUT316           5.2946       NORMAL  NO
OUT317           5.2946       NORMAL  NO
OUT318           5.2946       NORMAL  NO
OUT319           5.2946       NORMAL  NO
OUT320           5.2946       NORMAL  NO
OUT321           5.2946       NORMAL  NO
OUT322           5.2946       NORMAL  NO
OUT323           5.2946       NORMAL  NO
OUT324           5.2946       NORMAL  NO
OUT325           5.2946       NORMAL  NO
OUT326           5.2946       NORMAL  NO
OUT327           5.2946       NORMAL  NO
OUT328           5.2946       NORMAL  NO
OUT329           5.2946       NORMAL  NO
OUT330           5.2946       NORMAL  NO
OUT331           5.2946       NORMAL  NO
OUT332           5.2946       NORMAL  NO
OUT333           5.2946       NORMAL  NO
OUT334           5.2946       NORMAL  NO
OUT335           5.2946       NORMAL  NO
OUT336           5.2946       NORMAL  NO
OUT337           5.2946       NORMAL  NO
OUT338           5.2946       NORMAL  NO
OUT339           5.2946       NORMAL  NO
OUT340           5.2946       NORMAL  NO
OUT341           5.2946       NORMAL  NO
OUT342           5.2946       NORMAL  NO
OUT343           5.2946       NORMAL  NO
OUT344           5.2946       NORMAL  NO
OUT345           5.2946       NORMAL  NO
OUT346           5.2946       NORMAL  NO
OUT347           5.2946       NORMAL  NO
OUT348           5.2946       NORMAL  NO
OUT349           5.2946       NORMAL  NO
OUT350           5.2946       NORMAL  NO
OUT351           5.2946       NORMAL  NO
OUT352           5.2946       NORMAL  NO
OUT353           5.2946       NORMAL  NO
OUT354           5.2946       NORMAL  NO
OUT355           5.2946       NORMAL  NO
OUT356           5.2946       NORMAL  NO
OUT357           5.2946       NORMAL  NO
OUT358           5.2946       NORMAL  NO
OUT359           5.2946       NORMAL  NO
OUT360           5.2946       NORMAL  NO
OUT361           5.2946       NORMAL  NO
OUT362           5.2946       NORMAL  NO
OUT363           5.2946       NORMAL  NO
OUT364           5.2946       NORMAL  NO
OUT365           5.2946       NORMAL  NO
OUT366           5.2946       NORMAL  NO
OUT367           5.2946       NORMAL  NO
OUT368           5.2946       NORMAL  NO
OUT369           5.2946       NORMAL  NO
OUT370           5.2946       NORMAL  NO
OUT371           5.2946       NORMAL  NO
OUT372           5.2946       NORMAL  NO
OUT373           5.2946       NORMAL  NO
OUT374           5.2946       NORMAL  NO
OUT375           5.2946       NORMAL  NO
OUT376           5.2946       NORMAL  NO
OUT377           5.2946       NORMAL  NO
OUT378           5.2946       NORMAL  NO
OUT379           5.2946       NORMAL  NO
OUT380           5.2946       NORMAL  NO
OUT381           5.2946       NORMAL  NO
OUT382           5.2946       NORMAL  NO
OUT383           5.2946       NORMAL  NO
OUT384           5.2946       NORMAL  NO
OUT385           5.2946       NORMAL  NO
OUT386           5.2946       NORMAL  NO
OUT387           5.2946       NORMAL  NO
OUT388           5.2946       NORMAL  NO
OUT389           5.2946       NORMAL  NO
OUT390           5.2946       NORMAL  NO
OUT391           5.2946       NORMAL  NO
OUT392           5.2946       NORMAL  NO
OUT393           5.2946       NORMAL  NO
OUT394           5.2946       NORMAL  NO
OUT395           5.2946       NORMAL  NO
OUT396           5.2946       NORMAL  NO
OUT397           5.2946       NORMAL  NO
OUT398           5.2946       NORMAL  NO
OUT399           5.2946       NORMAL  NO
OUT400           5.2946       NORMAL  NO
OUT401           5.2946       NORMAL  NO
OUT402           5.2946       NORMAL  NO
OUT403           5.2946       NORMAL  NO
OUT404           5.2946       NORMAL  NO
OUT405           5.2946       NORMAL  NO
OUT406           5.2946       NORMAL  NO
OUT407           5.2946       NORMAL  NO
OUT408           5.2946       NORMAL  NO
OUT409           5.2946       NORMAL  NO
OUT410           5.2946       NORMAL  NO
OUT411           5.2946       NORMAL  NO
OUT412           5.2946       NORMAL  NO
OUT413           5.2946       NORMAL  NO
OUT414           5.2946       NORMAL  NO
OUT415           5.2946       NORMAL  NO
OUT416           5.2946       NORMAL  NO
OUT417           5.2946       NORMAL  NO
OUT418           5.2946       NORMAL  NO
OUT419           5.2946       NORMAL  NO
OUT420           5.2946       NORMAL  NO
OUT421           5.2946       NORMAL  NO
OUT422           5.2946       NORMAL  NO
OUT423           5.2946       NORMAL  NO
OUT424           5.2946       NORMAL  NO
OUT425           5.2946       NORMAL  NO
OUT426           5.2946       NORMAL  NO
OUT427           5.2946       NORMAL  NO
OUT428           5.2946       NORMAL  NO
OUT429           5.2946       NORMAL  NO
OUT430           5.2946       NORMAL  NO
OUT431           5.2946       NORMAL  NO
OUT432           5.2946       NORMAL  NO
OUT433           5.2946       NORMAL  NO
OUT434           5.2946       NORMAL  NO
OUT435           5.2946       NORMAL  NO
OUT436           5.2946       NORMAL  NO
OUT437           5.2946       NORMAL  NO
OUT438           5.2946       NORMAL  NO
OUT439           5.2946       NORMAL  NO
OUT440           5.2946       NORMAL  NO
OUT441           5.2946       NORMAL  NO
OUT442           5.2946       NORMAL  NO
OUT443           5.2946       NORMAL  NO
OUT444           5.2946       NORMAL  NO
OUT445           5.2946       NORMAL  NO
OUT446           5.2946       NORMAL  NO
OUT447           5.2946       NORMAL  NO
OUT448           5.2946       NORMAL  NO
OUT449           5.2946       NORMAL  NO
OUT450           5.2946       NORMAL  NO
OUT451           5.2946       NORMAL  NO
OUT452           5.2946       NORMAL  NO
OUT453           5.2946       NORMAL  NO
OUT454           5.2946       NORMAL  NO
OUT455           5.2946       NORMAL  NO
OUT456           5.2946       NORMAL  NO
OUT457           5.2946       NORMAL  NO
OUT458           5.2946       NORMAL  NO
OUT459           5.2946       NORMAL  NO
OUT460           5.2946       NORMAL  NO
OUT461           5.2946       NORMAL  NO
OUT462           5.2946       NORMAL  NO
OUT463           5.2946       NORMAL  NO
OUT464           5.2946       NORMAL  NO
OUT465           5.2946       NORMAL  NO
OUT466           5.2946       NORMAL  NO
OUT467           5.2946       NORMAL  NO
OUT468           5.2946       NORMAL  NO
OUT469           5.2946       NORMAL  NO
OUT470           5.2946       NORMAL  NO
OUT471           5.2946       NORMAL  NO
OUT472           5.2946       NORMAL  NO
OUT473           5.2946       NORMAL  NO
OUT474           5.2946       NORMAL  NO
OUT475           5.2946       NORMAL  NO
OUT476           5.2946       NORMAL  NO
OUT477           5.2946       NORMAL  NO
OUT478           5.2946       NORMAL  NO
OUT479           5.2946       NORMAL  NO
OUT480           5.2946       NORMAL  NO
OUT481           5.2946       NORMAL  NO
OUT482           5.2946       NORMAL  NO
OUT483           5.2946       NORMAL  NO
OUT484           5.2946       NORMAL  NO
OUT485           5.2946       NORMAL  NO
OUT486           5.2946       NORMAL  NO
OUT487           5.2946       NORMAL  NO
OUT488           5.2946       NORMAL  NO
OUT489           5.2946       NORMAL  NO
OUT490           5.2946       NORMAL  NO
OUT491           5.2946       NORMAL  NO
OUT492           5.2946       NORMAL  NO
OUT493           5.2946       NORMAL  NO
OUT494           5.2946       NORMAL  NO
OUT495           5.2946       NORMAL  NO
OUT496           5.2946       NORMAL  NO
OUT497           5.2946       NORMAL  NO
OUT498           5.2946       NORMAL  NO
OUT499           5.2946       NORMAL  NO
OUT500           5.2946       NORMAL  NO
OUT501           5.2946       NORMAL  NO
OUT502           5.2946       NORMAL  NO
OUT503           5.2946       NORMAL  NO
OUT504           5.2946       NORMAL  NO
OUT505           5.2946       NORMAL  NO
OUT506           5.2946       NORMAL  NO
OUT507           5.2946       NORMAL  NO
OUT508           5.2946       NORMAL  NO
OUT509           5.2946       NORMAL  NO
OUT510           5.2946       NORMAL  NO
OUT511           5.2946       NORMAL  NO
OUT512           5.2946       NORMAL  NO

[CONDUITS]
G00001           N00001           N00013           82.462     0.0130   0 0 0 0
G00002           N00002           N00063           89.443     0.0130   0 0 0 0
G00003           N00003           N00092           82.462     0.0130   0 0 0 0
G00004           N00004           N00151           89.443     0.0130   0 0 0 0
G00005           N00005           N00004           388.330    0.0130   0 0 0 0
G00006           N00006           N01374           82.462     0.0130   0 0 0 0
G00007           N00007           N00069           100.000    0.0130   0 0 0 0
G00008           N00008           N01514           184.391    0.0130   0 0 0 0
G00009           N00009           N01650           56.569     0.0130   0 0 0 0
G00010           N00010           N00011           120.000    0.0130   0 0 0 0
G00011           N00011           N00012           121.655    0.0130   0 0 0 0
G00012           N00012           N01516           60.000     0.0130   0 0 0 0
G00013           N00014           N01098           382.099    0.0130   0 0 0 0
G00014           N00015           N00070           120.000    0.0130   0 0 0 0
G00015           N00016           N01496           82.462     0.0130   0 0 0 0
G00016           N00017           N00014           181.108    0.0130   0 0 0 0
G00017           N00018           N00021           107.703    0.0130   0 0 0 0
G00018           N00019           N01118           28.284     0.0130   0 0 0 0
G00019           N00020           N00022           164.924    0.0130   0 0 0 0
G00020           N00021           N01033           100.000    0.0130   0 0 0 0
G00021           N00022           N00288           100.000    0.0130   0 0 0 0
G00022           N00023           N02308           72.111     0.0130   0 0 0 0
G00023           N00024           N02308           72.111     0.0130   0 0 0 0
G00024           N00025           N00985           40.000     0.0130   0 0 0 0
G00025           N00026           N00027           161.245    0.0130   0 0 0 0
G00026           N00027           N00344           63.246     0.0130   0 0 0 0
G00027           N00031           N00032           164.924    0.0130   0 0 0 0
G00028           N00032           N02284           80.000     0.0130   0 0 0 0
G00029           N00033           N00034           80.000     0.0130   0 0 0 0
G00030           N00034           N00852           56.569     0.0130   0 0 0 0
G00031           N00035           N02279           63.246     0.0130   0 0 0 0
G00032           N00036           N00035           160.000    0.0130   0 0 0 0
G00033           N00040           N01115           82.462     0.0130   0 0 0 0
G00034           N00041           N00020           40.000     0.0130   0 0 0 0
G00035           N00045           N02736           89.443     0.0130   0 0 0 0
G00036           N00053           N02034           100.000    0.0130   0 0 0 0
G00037           N00054           N01072           60.000     0.0130   0 0 0 0
G00038           N00055           N00546           84.853     0.0130   0 0 0 0
G00039           N00056           N00545           44.721     0.0130   0 0 0 0
G00040           N00057           N02469           44.721     0.0130   0 0 0 0
G00041           N00063           N01645           89.443     0.0130   0 0 0 0
G00042           N00064           N00013           28.284     0.0130   0 0 0 0
G00043           N00065           N01647           28.284     0.0130   0 0 0 0
G00044           N00066           N01515           63.246     0.0130   0 0 0 0
G00045           N00067           N00011           100.000    0.0130   0 0 0 0
G00046           N00068           N01651           40.000     0.0130   0 0 0 0
G00047           N00069           N00068           100.000    0.0130   0 0 0 0
G00048           N00070           N01496           84.853     0.0130   0 0 0 0
G00049           N00071           N01098           100.000    0.0130   0 0 0 0
G00050           N00074           N00503           107.703    0.0130   0 0 0 0
G00051           N00075           N02406           82.462     0.0130   0 0 0 0
G00052           N00076           N02547           220.000    0.0130   0 0 0 0
G00053           N00083           N00084           184.391    0.0130   0 0 0 0
G00054           N00084           N00872           72.111     0.0130   0 0 0 0
G00055           N00085           N00086           44.721     0.0130   0 0 0 0
G00056           N00086           N00870           72.111     0.0130   0 0 0 0
G00057           N00087           N00088           260.768    0.0130   0 0 0 0
G00058           N00088           N01391           80.000     0.0130   0 0 0 0
G00059           N00089           N00237           100.000    0.0130   0 0 0 0
G00060           N00090           N00093           82.462     0.0130   0 0 0 0
G00061           N00091           N01393           63.246     0.0130   0 0 0 0
G00062           N00093           N00091           60.000     0.0130   0 0 0 0
G00063           N00094           N00097           40.000     0.0130   0 0 0 0
G00064           N00095           N00092           40.000     0.0130   0 0 0 0
G00065           N00096           N01395           63.246     0.0130   0 0 0 0
G00066           N00097           N01396           100.000    0.0130   0 0 0 0
G00067           N00098           N01374           60.000     0.0130   0 0 0 0
G00068           N00099           N01374           72.111     0.0130   0 0 0 0
G00069           N00100           N00151           72.111     0.0130   0 0 0 0
G00070           N00101           N00124           89.443     0.0130   0 0 0 0
G00071           N00102           N00005           28.284     0.0130   0 0 0 0
G00072           N00103           N00122           100.000    0.0130   0 0 0 0
G00073           N00104           N00659           82.462     0.0130   0 0 0 0
G00074           N00105           N00113           89.443     0.0130   0 0 0 0
G00075           N00106           N00105           44.721     0.0130   0 0 0 0
G00076           N00107           N00160           82.462     0.0130   0 0 0 0
G00077           N00108           N00109           156.205    0.0130   0 0 0 0
G00078           N00109           N00150           44.721     0.0130   0 0 0 0
G00079           N00110           N01945           72.111     0.0130   0 0 0 0
G00080           N00111           N01390           28.284     0.0130   0 0 0 0
G00081           N00112           N00111           178.885    0.0130   0 0 0 0
G00082           N00113           N00151           80.000     0.0130   0 0 0 0
G00083           N00114           N00113           417.612    0.0130   0 0 0 0
G00084           N00115           N00114           107.703    0.0130   0 0 0 0
G00085           N00116           N00115           152.315    0.0130   0 0 0 0
G00086           N00117           N00148           260.000    0.0130   0 0 0 0
G00087           N00118           N00117           134.164    0.0130   0 0 0 0
G00088           N00122           N00123           141.421    0.0130   0 0 0 0
G00089           N00123           N00185           84.853     0.0130   0 0 0 0
G00090           N00124           N00123           82.462     0.0130   0 0 0 0
G00091           N00125           N01388           44.721     0.0130   0 0 0 0
G00092           N00126           N00127           172.047    0.0130   0 0 0 0
G00093           N00127           N02178           82.462     0.0130   0 0 0 0
G00094           N00128           N02181           89.443     0.0130   0 0 0 0
G00095           N00130           N02191           100.000    0.0130   0 0 0 0
G00096           N00131           N02383           100.000    0.0130   0 0 0 0
G00097           N00132           N02383           100.000    0.0130   0 0 0 0
G00098           N00133           N01631           100.000    0.0130   0 0 0 0
G00099           N00134           N00133           107.703    0.0130   0 0 0 0
G00100           N00135           N02709           100.000    0.0130   0 0 0 0
G00101           N00136           N00137           126.491    0.0130   0 0 0 0
G00102           N00137           N00139           302.655    0.0130   0 0 0 0
G00103           N00138           N00139           141.421    0.0130   0 0 0 0
G00104           N00139           N00640           160.000    0.0130   0 0 0 0
G00105           N00140           N00232           160.000    0.0130   0 0 0 0
G00106           N00141           N00638           80.000     0.0130   0 0 0 0
G00107           N00142           N01025           82.462     0.0130   0 0 0 0
G00108           N00143           N01460           63.246     0.0130   0 0 0 0
G00109           N00147           N00117           28.284     0.0130   0 0 0 0
G00110           N00148           N00149           398.497    0.0130   0 0 0 0
G00111           N00149           N00150           101.980    0.0130   0 0 0 0
G00112           N00150           N00151           107.703    0.0130   0 0 0 0
G00113           N00151           N00152           89.443     0.0130   0 0 0 0
G00114           N00152           N00153           116.619    0.0130   0 0 0 0
G00115           N00153           N01390           100.000    0.0130   0 0 0 0
G00116           N00154           N01026           100.000    0.0130   0 0 0 0
G00117           N00155           N02697           63.246     0.0130   0 0 0 0
G00118           N00156           N00117           82.462     0.0130   0 0 0 0
G00119           N00157           N01402           101.980    0.0130   0 0 0 0
G00120           N00158           N01462           82.462     0.0130   0 0 0 0
G00121           N00159           N02056           63.246     0.0130   0 0 0 0
G00122           N00160           N00108           89.443     0.0130   0 0 0 0
G00123           N00161           N00124           100.000    0.0130   0 0 0 0
G00124           N00162           N00163           161.245    0.0130   0 0 0 0
G00125           N00163           N01462           28.284     0.0130   0 0 0 0
G00126           N00164           N00165           447.214    0.0130   0 0 0 0
G00127           N00165           N01406           56.569     0.0130   0 0 0 0
G00128           N00166           N00164           60.000     0.0130   0 0 0 0
G00129           N00167           N00180           100.000    0.0130   0 0 0 0
G00130           N00168           N00179           63.246     0.0130   0 0 0 0
G00131           N00169           N00178           223.607    0.0130   0 0 0 0
G00132           N00170           N02474           44.721     0.0130   0 0 0 0
G00133           N00171           N00170           84.853     0.0130   0 0 0 0
G00134           N00172           N01348           80.000     0.0130   0 0 0 0
G00135           N00173           N00172           164.924    0.0130   0 0 0 0
G00136           N00174           N01928           189.737    0.0130   0 0 0 0
G00137           N00175           N01584           121.655    0.0130   0 0 0 0
G00138           N00176           N01349           40.000     0.0130   0 0 0 0
G00139           N00177           N00659           84.853     0.0130   0 0 0 0
G00140           N00178           N00182           100.000    0.0130   0 0 0 0
G00141           N00179           N00178           121.655    0.0130   0 0 0 0
G00142           N00180           N00179           107.703    0.0130   0 0 0 0
G00143           N00181           N00179           82.462     0.0130   0 0 0 0
G00144           N00182           N02475           82.462     0.0130   0 0 0 0
G00145           N00183           N00124           100.000    0.0130   0 0 0 0
G00146           N00184           N00123           72.111     0.0130   0 0 0 0
G00147           N00185           N00100           107.703    0.0130   0 0 0 0
G00148           N00186           N01345           60.000     0.0130   0 0 0 0
G00149           N00187           N02474           40.000     0.0130   0 0 0 0
G00150           N00188           N00169           82.462     0.0130   0 0 0 0
G00151           N00189           N00179           89.443     0.0130   0 0 0 0
G00152           N00190           N00180           44.721     0.0130   0 0 0 0
G00153           N00191           N00964           84.853     0.0130   0 0 0 0
G00154           N00192           N01343           44.721     0.0130   0 0 0 0
G00155           N00193           N00182           44.721     0.0130   0 0 0 0
G00156           N00194           N01483           89.443     0.0130   0 0 0 0
G00157           N00195           N00224           100.000    0.0130   0 0 0 0
G00158           N00196           N00197           216.333    0.0130   0 0 0 0
G00159           N00197           N01478           72.111     0.0130   0 0 0 0
G00160           N00198           N01655           100.000    0.0130   0 0 0 0
G00161           N00199           N01655           44.721     0.0130   0 0 0 0
G00162           N00200           N02719           100.000    0.0130   0 0 0 0
G00163           N00201           N00210           89.443     0.0130   0 0 0 0
G00164           N00202           N02719           72.111     0.0130   0 0 0 0
G00165           N00203           N02642           63.246     0.0130   0 0 0 0
G00166           N00204           N00323           100.000    0.0130   0 0 0 0
G00167           N00205           N02429           141.421    0.0130   0 0 0 0
G00168           N00206           N01931           84.853     0.0130   0 0 0 0
G00169           N00208           N01657           44.721     0.0130   0 0 0 0
G00170           N00209           N01931           80.000     0.0130   0 0 0 0
G00171           N00210           N00202           89.443     0.0130   0 0 0 0
G00172           N00212           N00211           128.062    0.0130   0 0 0 0
G00173           N00213           N00212           161.245    0.0130   0 0 0 0
G00174           N00214           N00240           63.246     0.0130   0 0 0 0
G00175           N00215           N00821           84.853     0.0130   0 0 0 0
G00176           N00216           N00815           40.000     0.0130   0 0 0 0
G00177           N00217           N00216           220.907    0.0130   0 0 0 0
G00178           N00218           N00219           180.000    0.0130   0 0 0 0
G00179           N00219           N00220           421.900    0.0130   0 0 0 0
G00180           N00220           N01883           82.462     0.0130   0 0 0 0
G00181           N00221           N00814           101.980    0.0130   0 0 0 0
G00182           N00222           N00221           215.407    0.0130   0 0 0 0
G00183           N00223           N00222           208.806    0.0130   0 0 0 0
G00184           N00224           N00225           161.245    0.0130   0 0 0 0
G00185           N00225           N00809           28.284     0.0130   0 0 0 0
G00186           N00226           N02625           44.721     0.0130   0 0 0 0
G00187           N00227           N00821           160.000    0.0130   0 0 0 0
G00188           N00228           N00229           280.000    0.0130   0 0 0 0
G00189           N00229           N01493           300.000    0.0130   0 0 0 0
G00190           N00232           N00233           140.000    0.0130   0 0 0 0
G00191           N00233           N00234           101.980    0.0130   0 0 0 0
G00192           N00234           N00235           164.924    0.0130   0 0 0 0
G00193           N00235           N00236           121.655    0.0130   0 0 0 0
G00194           N00236           N00237           215.407    0.0130   0 0 0 0
G00195           N00237           N00211           63.246     0.0130   0 0 0 0
G00196           N00238           N01540           72.111     0.0130   0 0 0 0
G00197           N00239           N00227           89.443     0.0130   0 0 0 0
G00198           N00240           N00241           178.885    0.0130   0 0 0 0
G00199           N00241           N00820           84.853     0.0130   0 0 0 0
G00200           N00242           N00241           82.462     0.0130   0 0 0 0
G00201           N00243           N00241           100.000    0.0130   0 0 0 0
G00202           N00244           N00241           100.000    0.0130   0 0 0 0
G00203           N00245           N00250           89.443     0.0130   0 0 0 0
G00204           N00246           N00219           100.000    0.0130   0 0 0 0
G00205           N00247           N00246           120.000    0.0130   0 0 0 0
G00206           N00248           N00240           44.721     0.0130   0 0 0 0
G00207           N00249           N00250           28.284     0.0130   0 0 0 0
G00208           N00250           N00821           100.000    0.0130   0 0 0 0
G00209           N00251           N00218           100.000    0.0130   0 0 0 0
G00210           N00252           N00246           28.284     0.0130   0 0 0 0
G00211           N00253           N02605           89.443     0.0130   0 0 0 0
G00212           N00254           N01573           89.443     0.0130   0 0 0 0
G00213           N00255           N00254           89.443     0.0130   0 0 0 0
G00214           N00256           N00267           72.111     0.0130   0 0 0 0
G00215           N00257           N00270           89.443     0.0130   0 0 0 0
G00216           N00258           N00257           164.924    0.0130   0 0 0 0
G00217           N00259           N00229           100.000    0.0130   0 0 0 0
G00218           N00260           N00267           100.000    0.0130   0 0 0 0
G00219           N00261           N00257           44.721     0.0130   0 0 0 0
G00220           N00262           N00261           120.000    0.0130   0 0 0 0
G00221           N00263           N00260           28.284     0.0130   0 0 0 0
G00222           N00264           N00259           56.569     0.0130   0 0 0 0
G00223           N00265           N00266           164.924    0.0130   0 0 0 0
G00224           N00266           N01573           44.721     0.0130   0 0 0 0
G00225           N00267           N01573           72.111     0.0130   0 0 0 0
G00226           N00268           N00258           28.284     0.0130   0 0 0 0
G00227           N00269           N00270           180.000    0.0130   0 0 0 0
G00228           N00270           N01493           44.721     0.0130   0 0 0 0
G00229           N00271           N01296           101.980    0.0130   0 0 0 0
G00230           N00272           N01966           72.111     0.0130   0 0 0 0
G00231           N00273           N00276           63.246     0.0130   0 0 0 0
G00232           N00274           N00831           44.721     0.0130   0 0 0 0
G00233           N00275           N01039           72.111     0.0130   0 0 0 0
G00234           N00276           N00278           247.386    0.0130   0 0 0 0
G00235           N00277           N00276           56.569     0.0130   0 0 0 0
G00236           N00278           N01119           82.462     0.0130   0 0 0 0
G00237           N00279           N01119           60.000     0.0130   0 0 0 0
G00238           N00280           N00279           161.245    0.0130   0 0 0 0
G00239           N00281           N00280           141.421    0.0130   0 0 0 0
G00240           N00282           N00283           89.443     0.0130   0 0 0 0
G00241           N00283           N00281           84.853     0.0130   0 0 0 0
G00242           N00284           N01785           80.000     0.0130   0 0 0 0
G00243           N00285           N01704           72.111     0.0130   0 0 0 0
G00244           N00286           N00287           184.391    0.0130   0 0 0 0
G00245           N00287           N02701           72.111     0.0130   0 0 0 0
G00246           N00288           N02701           82.462     0.0130   0 0 0 0
G00247           N00289           N01036           60.000     0.0130   0 0 0 0
G00248           N00290           N00291           300.000    0.0130   0 0 0 0
G00249           N00291           N00292           200.000    0.0130   0 0 0 0
G00250           N00292           N00295           60.000     0.0130   0 0 0 0
G00251           N00293           N00294           89.443     0.0130   0 0 0 0
G00252           N00294           N01358           44.721     0.0130   0 0 0 0
G00253           N00295           N01437           72.111     0.0130   0 0 0 0
G00254           N00296           N00292           440.454    0.0130   0 0 0 0
G00255           N00297           N00295           141.421    0.0130   0 0 0 0
G00256           N00298           N00281           80.000     0.0130   0 0 0 0
G00257           N00299           N00298           160.000    0.0130   0 0 0 0
G00258           N00300           N00299           180.000    0.0130   0 0 0 0
G00259           N00301           N00298           44.721     0.0130   0 0 0 0
G00260           N00302           N00301           89.443     0.0130   0 0 0 0
G00261           N00303           N01453           84.853     0.0130   0 0 0 0
G00262           N00304           N00302           40.000     0.0130   0 0 0 0
G00263           N00305           N01115           40.000     0.0130   0 0 0 0
G00264           N00306           N01358           89.443     0.0130   0 0 0 0
G00265           N00307           N00281           89.443     0.0130   0 0 0 0
G00266           N00308           N00311           60.000     0.0130   0 0 0 0
G00267           N00309           N00281           100.000    0.0130   0 0 0 0
G00268           N00310           N00300           100.000    0.0130   0 0 0 0
G00269           N00311           N01792           134.164    0.0130   0 0 0 0
G00270           N00312           N00713           160.000    0.0130   0 0 0 0
G00271           N00313           N00706           100.000    0.0130   0 0 0 0
G00272           N00314           N01337           80.000     0.0130   0 0 0 0
G00273           N00315           N01278           164.924    0.0130   0 0 0 0
G00274           N00316           N02105           72.111     0.0130   0 0 0 0
G00275           N00317           N02091           82.462     0.0130   0 0 0 0
G00276           N00318           N01365           40.000     0.0130   0 0 0 0
G00277           N00319           N00318           250.599    0.0130   0 0 0 0
G00278           N00320           N00321           161.245    0.0130   0 0 0 0
G00279           N00321           N02050           28.284     0.0130   0 0 0 0
G00280           N00322           N02643           28.284     0.0130   0 0 0 0
G00281           N00323           N01342           72.111     0.0130   0 0 0 0
G00282           N00324           N00323           145.602    0.0130   0 0 0 0
G00283           N00325           N00016           220.000    0.0130   0 0 0 0
G00284           N00326           N00327           89.443     0.0130   0 0 0 0
G00285           N00327           N01496           44.721     0.0130   0 0 0 0
G00286           N00328           N01745           100.000    0.0130   0 0 0 0
G00287           N00329           N00328           164.924    0.0130   0 0 0 0
G00288           N00330           N02802           28.284     0.0130   0 0 0 0
G00289           N00331           N01457           44.721     0.0130   0 0 0 0
G00290           N00332           N02753           44.721     0.0130   0 0 0 0
G00291           N00333           N00337           141.421    0.0130   0 0 0 0
G00292           N00334           N01031           89.443     0.0130   0 0 0 0
G00293           N00335           N02703           80.000     0.0130   0 0 0 0
G00294           N00336           N02211           220.907    0.0130   0 0 0 0
G00295           N00337           N02212           63.246     0.0130   0 0 0 0
G00296           N00338           N02753           40.000     0.0130   0 0 0 0
G00297           N00339           N00364           82.462     0.0130   0 0 0 0
G00298           N00340           N00352           100.000    0.0130   0 0 0 0
G00299           N00341           N00354           72.111     0.0130   0 0 0 0
G00300           N00342           N00343           40.000     0.0130   0 0 0 0
G00301           N00343           N00366           44.721     0.0130   0 0 0 0
G00302           N00344           N00343           152.315    0.0130   0 0 0 0
G00303           N00345           N01749           44.721     0.0130   0 0 0 0
G00304           N00346           N01764           20.000     0.0130   0 0 0 0
G00305           N00347           N00352           152.315    0.0130   0 0 0 0
G00306           N00348           N00353           80.000     0.0130   0 0 0 0
G00307           N00349           N00357           100.000    0.0130   0 0 0 0
G00308           N00350           N00360           28.284     0.0130   0 0 0 0
G00309           N00351           N01521           63.246     0.0130   0 0 0 0
G00310           N00352           N00353           28.284     0.0130   0 0 0 0
G00311           N00353           N00354           144.222    0.0130   0 0 0 0
G00312           N00354           N01519           89.443     0.0130   0 0 0 0
G00313           N00355           N00360           44.721     0.0130   0 0 0 0
G00314           N00356           N02564           80.000     0.0130   0 0 0 0
G00315           N00357           N00358           161.245    0.0130   0 0 0 0
G00316           N00358           N00330           100.000    0.0130   0 0 0 0
G00317           N00359           N00365           80.000     0.0130   0 0 0 0
G00318           N00360           N00359           141.421    0.0130   0 0 0 0
G00319           N00361           N00357           141.421    0.0130   0 0 0 0
G00320           N00362           N00342           170.880    0.0130   0 0 0 0
G00321           N00363           N00359           44.721     0.0130   0 0 0 0
G00322           N00364           N00357           82.462     0.0130   0 0 0 0
G00323           N00365           N01520           82.462     0.0130   0 0 0 0
G00324           N00366           N00365           156.205    0.0130   0 0 0 0
G00325           N00367           N00368           244.131    0.0130   0 0 0 0
G00326           N00368           N00369           284.253    0.0130   0 0 0 0
G00327           N00369           N00370           169.706    0.0130   0 0 0 0
G00328           N00370           N00371           84.853     0.0130   0 0 0 0
G00329           N00371           N00372           84.853     0.0130   0 0 0 0
G00330           N00372           N00653           72.111     0.0130   0 0 0 0
G00331           N00373           N00652           100.000    0.0130   0 0 0 0
G00332           N00374           N00212           28.284     0.0130   0 0 0 0
G00333           N00375           N00376           300.000    0.0130   0 0 0 0
G00334           N00376           N00071           28.284     0.0130   0 0 0 0
G00335           N00377           N00389           100.000    0.0130   0 0 0 0
G00336           N00378           N01352           100.000    0.0130   0 0 0 0
G00337           N00379           N00368           100.000    0.0130   0 0 0 0
G00338           N00380           N00329           56.569     0.0130   0 0 0 0
G00339           N00381           N02312           82.462     0.0130   0 0 0 0
G00340           N00382           N01489           89.443     0.0130   0 0 0 0
G00341           N00383           N01606           28.284     0.0130   0 0 0 0
G00342           N00384           N00377           116.619    0.0130   0 0 0 0
G00343           N00385           N00014           44.721     0.0130   0 0 0 0
G00344           N00386           N00375           44.721     0.0130   0 0 0 0
G00345           N00387           N00375           28.284     0.0130   0 0 0 0
G00346           N00388           N00376           80.000     0.0130   0 0 0 0
G00347           N00389           N00388           101.980    0.0130   0 0 0 0
G00348           N00390           N00395           82.462     0.0130   0 0 0 0
G00349           N00391           N00390           116.619    0.0130   0 0 0 0
G00350           N00392           N01499           28.284     0.0130   0 0 0 0
G00351           N00393           N00014           100.000    0.0130   0 0 0 0
G00352           N00394           N00393           72.111     0.0130   0 0 0 0
G00353           N00395           N00014           44.721     0.0130   0 0 0 0
G00354           N00396           N00014           100.000    0.0130   0 0 0 0
G00355           N00397           N00395           72.111     0.0130   0 0 0 0
G00356           N00398           N00393           100.000    0.0130   0 0 0 0
G00357           N00399           N00375           89.443     0.0130   0 0 0 0
G00358           N00400           N01619           63.246     0.0130   0 0 0 0
G00359           N00401           N01619           84.853     0.0130   0 0 0 0
G00360           N00402           N00401           181.108    0.0130   0 0 0 0
G00361           N00403           N02824           44.721     0.0130   0 0 0 0
G00362           N00404           N01619           100.000    0.0130   0 0 0 0
G00363           N00405           N01618           184.391    0.0130   0 0 0 0
G00364           N00406           N00904           82.462     0.0130   0 0 0 0
G00365           N00408           N00572           100.000    0.0130   0 0 0 0
G00366           N00409           N00432           28.284     0.0130   0 0 0 0
G00367           N00410           N01505           28.284     0.0130   0 0 0 0
G00368           N00411           N00432           89.443     0.0130   0 0 0 0
G00369           N00412           N01896           28.284     0.0130   0 0 0 0
G00370           N00413           N01420           63.246     0.0130   0 0 0 0
G00371           N00414           N01818           60.000     0.0130   0 0 0 0
G00372           N00415           N01831           80.000     0.0130   0 0 0 0
G00373           N00416           N01420           63.246     0.0130   0 0 0 0
G00374           N00422           N02824           72.111     0.0130   0 0 0 0
G00375           N00423           N01253           100.000    0.0130   0 0 0 0
G00376           N00424           N00423           140.000    0.0130   0 0 0 0
G00377           N00425           N00449           28.284     0.0130   0 0 0 0
G00378           N00426           N00453           100.000    0.0130   0 0 0 0
G00379           N00427           N01253           89.443     0.0130   0 0 0 0
G00380           N00428           N00455           100.000    0.0130   0 0 0 0
G00381           N00429           N01503           72.111     0.0130   0 0 0 0
G00382           N00430           N00437           63.246     0.0130   0 0 0 0
G00383           N00431           N00436           172.047    0.0130   0 0 0 0
G00384           N00432           N00446           20.000     0.0130   0 0 0 0
G00385           N00433           N00568           80.000     0.0130   0 0 0 0
G00386           N00434           N00432           184.391    0.0130   0 0 0 0
G00387           N00435           N00664           28.284     0.0130   0 0 0 0
G00388           N00436           N00430           63.246     0.0130   0 0 0 0
G00389           N00437           N00435           141.421    0.0130   0 0 0 0
G00390           N00438           N00440           181.108    0.0130   0 0 0 0
G00391           N00439           N02415           63.246     0.0130   0 0 0 0
G00392           N00440           N00669           40.000     0.0130   0 0 0 0
G00393           N00441           N00431           28.284     0.0130   0 0 0 0
G00394           N00442           N00429           56.569     0.0130   0 0 0 0
G00395           N00443           N01503           200.998    0.0130   0 0 0 0
G00396           N00444           N00429           44.721     0.0130   0 0 0 0
G00397           N00445           N02415           100.000    0.0130   0 0 0 0
G00398           N00446           N00431           161.245    0.0130   0 0 0 0
G00399           N00449           N00450           184.391    0.0130   0 0 0 0
G00400           N00450           N00426           80.000     0.0130   0 0 0 0
G00401           N00451           N00423           82.462     0.0130   0 0 0 0
G00402           N00452           N00546           72.111     0.0130   0 0 0 0
G00403           N00453           N01253           80.000     0.0130   0 0 0 0
G00404           N00454           N00453           82.462     0.0130   0 0 0 0
G00405           N00455           N00449           89.443     0.0130   0 0 0 0
G00406           N00456           N02502           63.246     0.0130   0 0 0 0
G00407           N00457           N00458           280.713    0.0130   0 0 0 0
G00408           N00458           N01528           89.443     0.0130   0 0 0 0
G00409           N00479           N00480           189.737    0.0130   0 0 0 0
G00410           N00480           N00500           56.569     0.0130   0 0 0 0
G00411           N00481           N00483           60.000     0.0130   0 0 0 0
G00412           N00482           N00480           84.853     0.0130   0 0 0 0
G00413           N00483           N00991           189.737    0.0130   0 0 0 0
G00414           N00484           N00495           82.462     0.0130   0 0 0 0
G00415           N00485           N00499           28.284     0.0130   0 0 0 0
G00416           N00486           N00495           28.284     0.0130   0 0 0 0
G00417           N00487           N00488           456.946    0.0130   0 0 0 0
G00418           N00488           N01582           89.443     0.0130   0 0 0 0
G00419           N00489           N01581           89.443     0.0130   0 0 0 0
G00420           N00490           N00508           100.000    0.0130   0 0 0 0
G00421           N00491           N00503           82.462     0.0130   0 0 0 0
G00422           N00492           N00490           63.246     0.0130   0 0 0 0
G00423           N00493           N00513           40.000     0.0130   0 0 0 0
G00424           N00494           N00493           160.000    0.0130   0 0 0 0
G00425           N00495           N00512           100.000    0.0130   0 0 0 0
G00426           N00496           N00511           80.000     0.0130   0 0 0 0
G00427           N00497           N00496           161.245    0.0130   0 0 0 0
G00428           N00498           N00494           80.000     0.0130   0 0 0 0
G00429           N00499           N00498           134.164    0.0130   0 0 0 0
G00430           N00500           N00501           82.462     0.0130   0 0 0 0
G00431           N00501           N02024           89.443     0.0130   0 0 0 0
G00432           N00502           N00496           121.655    0.0130   0 0 0 0
G00433           N00503           N00504           184.391    0.0130   0 0 0 0
G00434           N00504           N00780           44.721     0.0130   0 0 0 0
G00435           N00505           N00494           72.111     0.0130   0 0 0 0
G00436           N00506           N00507           164.924    0.0130   0 0 0 0
G00437           N00507           N00496           28.284     0.0130   0 0 0 0
G00438           N00508           N00495           28.284     0.0130   0 0 0 0
G00439           N00509           N00508           80.000     0.0130   0 0 0 0
G00440           N00510           N00507           82.462     0.0130   0 0 0 0
G00441           N00511           N00495           63.246     0.0130   0 0 0 0
G00442           N00512           N00493           243.311    0.0130   0 0 0 0
G00443           N00513           N00514           181.108    0.0130   0 0 0 0
G00444           N00514           N02260           63.246     0.0130   0 0 0 0
G00445           N00515           N02260           56.569     0.0130   0 0 0 0
G00446           N00525           N00515           63.246     0.0130   0 0 0 0
G00447           N00530           N02805           161.245    0.0130   0 0 0 0
G00448           N00531           N02586           63.246     0.0130   0 0 0 0
G00449           N00532           N01524           72.111     0.0130   0 0 0 0
G00450           N00533           N00532           56.569     0.0130   0 0 0 0
G00451           N00534           N02739           56.569     0.0130   0 0 0 0
G00452           N00535           N02798           89.443     0.0130   0 0 0 0
G00453           N00536           N02163           28.284     0.0130   0 0 0 0
G00454           N00537           N00536           89.443     0.0130   0 0 0 0
G00455           N00538           N00546           40.000     0.0130   0 0 0 0
G00456           N00539           N02465           20.000     0.0130   0 0 0 0
G00457           N00540           N00449           72.111     0.0130   0 0 0 0
G00458           N00541           N00540           228.035    0.0130   0 0 0 0
G00459           N00542           N00549           100.000    0.0130   0 0 0 0
G00460           N00543           N02461           28.284     0.0130   0 0 0 0
G00461           N00545           N00546           164.924    0.0130   0 0 0 0
G00462           N00546           N00547           141.421    0.0130   0 0 0 0
G00463           N00547           N02122           100.000    0.0130   0 0 0 0
G00464           N00548           N00453           72.111     0.0130   0 0 0 0
G00465           N00549           N00425           100.000    0.0130   0 0 0 0
G00466           N00550           N01075           89.443     0.0130   0 0 0 0
G00467           N00551           N00550           212.603    0.0130   0 0 0 0
G00468           N00552           N00551           256.125    0.0130   0 0 0 0
G00469           N00553           N00552           269.072    0.0130   0 0 0 0
G00470           N00554           N01528           80.000     0.0130   0 0 0 0
G00471           N00555           N00457           60.000     0.0130   0 0 0 0
G00472           N00556           N02834           82.462     0.0130   0 0 0 0
G00473           N00565           N02166           56.569     0.0130   0 0 0 0
G00474           N00566           N02164           82.462     0.0130   0 0 0 0
G00475           N00567           N00568           60.000     0.0130   0 0 0 0
G00476           N00568           N00864           82.462     0.0130   0 0 0 0
G00477           N00569           N00411           72.111     0.0130   0 0 0 0
G00478           N00570           N00572           100.000    0.0130   0 0 0 0
G00479           N00571           N00572           164.924    0.0130   0 0 0 0
G00480           N00572           N00446           28.284     0.0130   0 0 0 0
G00481           N00573           N02595           44.721     0.0130   0 0 0 0
G00482           N00574           N00573           152.315    0.0130   0 0 0 0
G00483           N00575           N01154           63.246     0.0130   0 0 0 0
G00484           N00585           N01598           82.462     0.0130   0 0 0 0
G00485           N00586           N00597           170.880    0.0130   0 0 0 0
G00486           N00587           N00589           72.111     0.0130   0 0 0 0
G00487           N00588           N01596           72.111     0.0130   0 0 0 0
G00488           N00589           N00590           160.000    0.0130   0 0 0 0
G00489           N00590           N00591           178.885    0.0130   0 0 0 0
G00490           N00591           N01535           72.111     0.0130   0 0 0 0
G00491           N00592           N01142           412.311    0.0130   0 0 0 0
G00492           N00596           N00597           152.315    0.0130   0 0 0 0
G00493           N00597           N01565           44.721     0.0130   0 0 0 0
G00494           N00600           N02100           161.245    0.0130   0 0 0 0
G00495           N00602           N00600           197.990    0.0130   0 0 0 0
G00496           N00603           N00602           101.980    0.0130   0 0 0 0
G00497           N00604           N00605           169.706    0.0130   0 0 0 0
G00498           N00605           N00777           40.000     0.0130   0 0 0 0
G00499           N00606           N00607           240.000    0.0130   0 0 0 0
G00500           N00607           N01051           72.111     0.0130   0 0 0 0
G00501           N00608           N00609           223.607    0.0130   0 0 0 0
G00502           N00609           N00610           126.491    0.0130   0 0 0 0
G00503           N00610           N00611           152.315    0.0130   0 0 0 0
G00504           N00611           N00929           40.000     0.0130   0 0 0 0
G00505           N00612           N02775           44.721     0.0130   0 0 0 0
G00506           N00614           N02775           200.998    0.0130   0 0 0 0
G00507           N00615           N00614           160.000    0.0130   0 0 0 0
G00508           N00616           N00617           188.680    0.0130   0 0 0 0
G00509           N00617           N00618           200.998    0.0130   0 0 0 0
G00510           N00618           N02098           60.000     0.0130   0 0 0 0
G00511           N00619           N00620           161.245    0.0130   0 0 0 0
G00512           N00620           N01020           44.721     0.0130   0 0 0 0
G00513           N00621           N00375           72.111     0.0130   0 0 0 0
G00514           N00622           N00621           164.924    0.0130   0 0 0 0
G00515           N00623           N00624           134.164    0.0130   0 0 0 0
G00516           N00624           N00367           116.619    0.0130   0 0 0 0
G00517           N00625           N00379           89.443     0.0130   0 0 0 0
G00518           N00626           N00624           56.569     0.0130   0 0 0 0
G00519           N00627           N00626           89.443     0.0130   0 0 0 0
G00520           N00628           N00375           101.980    0.0130   0 0 0 0
G00521           N00629           N00654           60.000     0.0130   0 0 0 0
G00522           N00630           N00235           44.721     0.0130   0 0 0 0
G00523           N00631           N00649           100.000    0.0130   0 0 0 0
G00524           N00632           N02491           72.111     0.0130   0 0 0 0
G00525           N00633           N00237           40.000     0.0130   0 0 0 0
G00526           N00634           N02491           63.246     0.0130   0 0 0 0
G00527           N00635           N00234           82.462     0.0130   0 0 0 0
G00528           N00636           N00235           82.462     0.0130   0 0 0 0
G00529           N00637           N02491           40.000     0.0130   0 0 0 0
G00530           N00638           N01164           100.000    0.0130   0 0 0 0
G00531           N00639           N02495           80.000     0.0130   0 0 0 0
G00532           N00640           N00232           140.000    0.0130   0 0 0 0
G00533           N00641           N01616           72.111     0.0130   0 0 0 0
G00534           N00642           N00643           145.602    0.0130   0 0 0 0
G00535           N00643           N00644           82.462     0.0130   0 0 0 0
G00536           N00644           N00138           84.853     0.0130   0 0 0 0
G00537           N00645           N00646           180.000    0.0130   0 0 0 0
G00538           N00646           N02496           72.111     0.0130   0 0 0 0
G00539           N00647           N01640           60.000     0.0130   0 0 0 0
G00540           N00648           N00236           145.602    0.0130   0 0 0 0
G00541           N00649           N00234           20.000     0.0130   0 0 0 0
G00542           N00650           N01391           56.569     0.0130   0 0 0 0
G00543           N00651           N01391           72.111     0.0130   0 0 0 0
G00544           N00652           N00212           100.000    0.0130   0 0 0 0
G00545           N00653           N00652           172.047    0.0130   0 0 0 0
G00546           N00654           N00237           189.737    0.0130   0 0 0 0
G00547           N00655           N01163           80.000     0.0130   0 0 0 0
G00548           N00656           N02745           184.391    0.0130   0 0 0 0
G00549           N00659           N00660           121.655    0.0130   0 0 0 0
G00550           N00660           N00661           116.619    0.0130   0 0 0 0
G00551           N00661           N01632           44.721     0.0130   0 0 0 0
G00552           N00664           N00665           141.421    0.0130   0 0 0 0
G00553           N00665           N01158           44.721     0.0130   0 0 0 0
G00554           N00667           N01158           181.108    0.0130   0 0 0 0
G00555           N00668           N00669           144.222    0.0130   0 0 0 0
G00556           N00669           N00664           160.000    0.0130   0 0 0 0
G00557           N00670           N00927           63.246     0.0130   0 0 0 0
G00558           N00671           N00929           28.284     0.0130   0 0 0 0
G00559           N00672           N00611           228.035    0.0130   0 0 0 0
G00560           N00673           N02427           63.246     0.0130   0 0 0 0
G00561           N00674           N00258           28.284     0.0130   0 0 0 0
G00562           N00675           N00257           89.443     0.0130   0 0 0 0
G00563           N00676           N00217           40.000     0.0130   0 0 0 0
G00564           N00677           N01888           80.000     0.0130   0 0 0 0
G00565           N00678           N00677           161.245    0.0130   0 0 0 0
G00566           N00679           N00831           89.443     0.0130   0 0 0 0
G00567           N00680           N02653           44.721     0.0130   0 0 0 0
G00568           N00681           N00682           272.029    0.0130   0 0 0 0
G00569           N00683           N00685           184.391    0.0130   0 0 0 0
G00570           N00684           N00683           240.832    0.0130   0 0 0 0
G00571           N00685           N01561           82.462     0.0130   0 0 0 0
G00572           N00686           N00685           164.924    0.0130   0 0 0 0
G00573           N00687           N01561           80.000     0.0130   0 0 0 0
G00574           N00688           N00689           200.998    0.0130   0 0 0 0
G00575           N00689           N01971           160.000    0.0130   0 0 0 0
G00576           N00690           N02690           56.569     0.0130   0 0 0 0
G00577           N00691           N02686           89.443     0.0130   0 0 0 0
G00578           N00692           N01275           141.421    0.0130   0 0 0 0
G00579           N00693           N00692           145.602    0.0130   0 0 0 0
G00580           N00694           N02670           28.284     0.0130   0 0 0 0
G00581           N00695           N00604           72.111     0.0130   0 0 0 0
G00582           N00696           N00691           340.000    0.0130   0 0 0 0
G00583           N00697           N02687           40.000     0.0130   0 0 0 0
G00584           N00698           N00711           80.000     0.0130   0 0 0 0
G00585           N00699           N01284           89.443     0.0130   0 0 0 0
G00586           N00700           N00791           89.443     0.0130   0 0 0 0
G00587           N00701           N00722           63.246     0.0130   0 0 0 0
G00588           N00702           N00710           80.000     0.0130   0 0 0 0
G00589           N00703           N00704           89.443     0.0130   0 0 0 0
G00590           N00704           N00321           100.000    0.0130   0 0 0 0
G00591           N00705           N00616           80.000     0.0130   0 0 0 0
G00592           N00706           N00312           89.443     0.0130   0 0 0 0
G00593           N00707           N01069           63.246     0.0130   0 0 0 0
G00594           N00708           N02050           82.462     0.0130   0 0 0 0
G00595           N00709           N01414           56.569     0.0130   0 0 0 0
G00596           N00710           N00722           161.245    0.0130   0 0 0 0
G00597           N00711           N01284           44.721     0.0130   0 0 0 0
G00598           N00713           N01364           82.462     0.0130   0 0 0 0
G00599           N00714           N00318           84.853     0.0130   0 0 0 0
G00600           N00717           N02091           100.000    0.0130   0 0 0 0
G00601           N00718           N01365           100.000    0.0130   0 0 0 0
G00602           N00720           N00723           28.284     0.0130   0 0 0 0
G00603           N00721           N00616           63.246     0.0130   0 0 0 0
G00604           N00722           N00723           205.913    0.0130   0 0 0 0
G00605           N00723           N00714           89.443     0.0130   0 0 0 0
G00606           N00724           N01318           220.000    0.0130   0 0 0 0
G00607           N00725           N00008           101.980    0.0130   0 0 0 0
G00608           N00726           N01318           60.000     0.0130   0 0 0 0
G00609           N00727           N01306           82.462     0.0130   0 0 0 0
G00610           N00739           N00740           134.164    0.0130   0 0 0 0
G00611           N00740           N02722           80.000     0.0130   0 0 0 0
G00612           N00745           N00744           180.000    0.0130   0 0 0 0
G00613           N00769           N00770           220.907    0.0130   0 0 0 0
G00614           N00770           N00592           56.569     0.0130   0 0 0 0
G00615           N00773           N01046           82.462     0.0130   0 0 0 0
G00616           N00774           N02550           100.000    0.0130   0 0 0 0
G00617           N00775           N01585           63.246     0.0130   0 0 0 0
G00618           N00776           N00775           240.832    0.0130   0 0 0 0
G00619           N00777           N02533           89.443     0.0130   0 0 0 0
G00620           N00778           N02527           63.246     0.0130   0 0 0 0
G00621           N00779           N00606           72.111     0.0130   0 0 0 0
G00622           N00780           N00493           223.607    0.0130   0 0 0 0
G00623           N00782           N00783           161.245    0.0130   0 0 0 0
G00624           N00783           N00672           44.721     0.0130   0 0 0 0
G00625           N00784           N00929           82.462     0.0130   0 0 0 0
G00626           N00786           N00835           56.569     0.0130   0 0 0 0
G00627           N00787           N02824           82.462     0.0130   0 0 0 0
G00628           N00791           N00706           72.111     0.0130   0 0 0 0
G00629           N00792           N01345           141.421    0.0130   0 0 0 0
G00630           N00793           N01584           63.246     0.0130   0 0 0 0
G00631           N00794           N01345           100.000    0.0130   0 0 0 0
G00632           N00795           N01349           44.721     0.0130   0 0 0 0
G00633           N00796           N00186           89.443     0.0130   0 0 0 0
G00634           N00797           N00798           181.108    0.0130   0 0 0 0
G00635           N00798           N01269           20.000     0.0130   0 0 0 0
G00636           N00799           N01940           72.111     0.0130   0 0 0 0
G00637           N00800           N00803           100.000    0.0130   0 0 0 0
G00638           N00801           N00800           260.768    0.0130   0 0 0 0
G00639           N00802           N02746           82.462     0.0130   0 0 0 0
G00640           N00803           N02056           89.443     0.0130   0 0 0 0
G00641           N00806           N00900           28.284     0.0130   0 0 0 0
G00642           N00808           N00809           80.000     0.0130   0 0 0 0
G00643           N00809           N00810           145.602    0.0130   0 0 0 0
G00644           N00810           N01480           82.462     0.0130   0 0 0 0
G00645           N00811           N00810           164.924    0.0130   0 0 0 0
G00646           N00812           N00811           180.000    0.0130   0 0 0 0
G00647           N00813           N00808           56.569     0.0130   0 0 0 0
G00648           N00814           N00813           161.245    0.0130   0 0 0 0
G00649           N00815           N01540           63.246     0.0130   0 0 0 0
G00650           N00816           N00813           89.443     0.0130   0 0 0 0
G00651           N00817           N00816           161.245    0.0130   0 0 0 0
G00652           N00818           N00220           60.000     0.0130   0 0 0 0
G00653           N00819           N00220           63.246     0.0130   0 0 0 0
G00654           N00820           N00819           181.108    0.0130   0 0 0 0
G00655           N00821           N00820           181.108    0.0130   0 0 0 0
G00656           N00822           N00241           72.111     0.0130   0 0 0 0
G00657           N00823           N01541           63.246     0.0130   0 0 0 0
G00658           N00824           N01066           63.246     0.0130   0 0 0 0
G00659           N00825           N00824           203.961    0.0130   0 0 0 0
G00660           N00826           N01881           234.094    0.0130   0 0 0 0
G00661           N00827           N01066           28.284     0.0130   0 0 0 0
G00662           N00828           N01940           89.443     0.0130   0 0 0 0
G00663           N00829           N01884           72.111     0.0130   0 0 0 0
G00664           N00830           N00831           72.111     0.0130   0 0 0 0
G00665           N00831           N00277           161.245    0.0130   0 0 0 0
G00666           N00832           N00833           84.853     0.0130   0 0 0 0
G00667           N00833           N02558           28.284     0.0130   0 0 0 0
G00668           N00834           N01383           89.443     0.0130   0 0 0 0
G00669           N00835           N00370           100.000    0.0130   0 0 0 0
G00670           N00836           N01382           100.000    0.0130   0 0 0 0
G00671           N00848           N02244           126.491    0.0130   0 0 0 0
G00672           N00849           N00483           82.462     0.0130   0 0 0 0
G00673           N00850           N00853           72.111     0.0130   0 0 0 0
G00674           N00851           N00986           28.284     0.0130   0 0 0 0
G00675           N00852           N02280           82.462     0.0130   0 0 0 0
G00676           N00853           N02544           63.246     0.0130   0 0 0 0
G00677           N00854           N00540           89.443     0.0130   0 0 0 0
G00678           N00855           N00854           215.407    0.0130   0 0 0 0
G00679           N00856           N02017           63.246     0.0130   0 0 0 0
G00680           N00857           N02502           100.000    0.0130   0 0 0 0
G00681           N00858           N00854           28.284     0.0130   0 0 0 0
G00682           N00859           N02279           120.000    0.0130   0 0 0 0
G00683           N00860           N00859           181.108    0.0130   0 0 0 0
G00684           N00861           N00859           203.961    0.0130   0 0 0 0
G00685           N00863           N00024           220.907    0.0130   0 0 0 0
G00686           N00864           N00863           184.391    0.0130   0 0 0 0
G00687           N00865           N00864           145.602    0.0130   0 0 0 0
G00688           N00869           N02383           89.443     0.0130   0 0 0 0
G00689           N00870           N00871           161.245    0.0130   0 0 0 0
G00690           N00871           N00422           72.111     0.0130   0 0 0 0
G00691           N00872           N00870           170.880    0.0130   0 0 0 0
G00692           N00873           N00870           120.000    0.0130   0 0 0 0
G00693           N00875           N00876           223.607    0.0130   0 0 0 0
G00694           N00876           N01868           44.721     0.0130   0 0 0 0
G00695           N00877           N00878           164.924    0.0130   0 0 0 0
G00696           N00878           N00889           152.315    0.0130   0 0 0 0
G00697           N00879           N01454           40.000     0.0130   0 0 0 0
G00698           N00882           N00889           164.924    0.0130   0 0 0 0
G00699           N00886           N02791           100.000    0.0130   0 0 0 0
G00700           N00887           N01859           40.000     0.0130   0 0 0 0
G00701           N00888           N01129           56.569     0.0130   0 0 0 0
G00702           N00889           N01129           44.721     0.0130   0 0 0 0
G00703           N00890           N01130           28.284     0.0130   0 0 0 0
G00704           N00892           N00894           100.000    0.0130   0 0 0 0
G00705           N00894           N02331           101.980    0.0130   0 0 0 0
G00706           N00900           N02392           126.491    0.0130   0 0 0 0
G00707           N00901           N02605           72.111     0.0130   0 0 0 0
G00708           N00902           N02494           84.853     0.0130   0 0 0 0
G00709           N00903           N01544           56.569     0.0130   0 0 0 0
G00710           N00904           N01543           28.284     0.0130   0 0 0 0
G00711           N00905           N00904           152.315    0.0130   0 0 0 0
G00712           N00906           N00907           120.000    0.0130   0 0 0 0
G00713           N00907           N01619           100.000    0.0130   0 0 0 0
G00714           N00908           N01721           20.000     0.0130   0 0 0 0
G00715           N00909           N00290           63.246     0.0130   0 0 0 0
G00716           N00911           N01176           134.164    0.0130   0 0 0 0
G00717           N00914           N00917           100.000    0.0130   0 0 0 0
G00718           N00915           N00914           28.284     0.0130   0 0 0 0
G00719           N00916           N00915           140.000    0.0130   0 0 0 0
G00720           N00917           N00918           161.245    0.0130   0 0 0 0
G00721           N00918           N00920           44.721     0.0130   0 0 0 0
G00722           N00919           N00917           101.980    0.0130   0 0 0 0
G00723           N00920           N01023           84.853     0.0130   0 0 0 0
G00724           N00921           N01021           44.721     0.0130   0 0 0 0
G00725           N00922           N00919           40.000     0.0130   0 0 0 0
G00726           N00923           N00921           364.966    0.0130   0 0 0 0
G00727           N00924           N01020           63.246     0.0130   0 0 0 0
G00728           N00925           N01023           80.000     0.0130   0 0 0 0
G00729           N00926           N00925           247.386    0.0130   0 0 0 0
G00730           N00928           N00927           84.853     0.0130   0 0 0 0
G00731           N00929           N00928           189.737    0.0130   0 0 0 0
G00732           N00930           N02417           82.462     0.0130   0 0 0 0
G00733           N00931           N02750           60.000     0.0130   0 0 0 0
G00734           N00932           N00931           145.602    0.0130   0 0 0 0
G00735           N00933           N00402           161.245    0.0130   0 0 0 0
G00736           N00934           N00088           161.245    0.0130   0 0 0 0
G00737           N00941           N01476           89.443     0.0130   0 0 0 0
G00738           N00944           N01218           28.284     0.0130   0 0 0 0
G00739           N00945           N00951           100.000    0.0130   0 0 0 0
G00740           N00946           N00951           101.980    0.0130   0 0 0 0
G00741           N00947           N00945           80.000     0.0130   0 0 0 0
G00742           N00948           N00947           107.703    0.0130   0 0 0 0
G00743           N00949           N00948           84.853     0.0130   0 0 0 0
G00744           N00951           N00952           141.421    0.0130   0 0 0 0
G00745           N00952           N02829           100.000    0.0130   0 0 0 0
G00746           N00954           N01579           28.284     0.0130   0 0 0 0
G00747           N00955           N00954           180.000    0.0130   0 0 0 0
G00748           N00957           N00659           63.246     0.0130   0 0 0 0
G00749           N00958           N00959           89.443     0.0130   0 0 0 0
G00750           N00959           N01389           56.569     0.0130   0 0 0 0
G00751           N00962           N00181           60.000     0.0130   0 0 0 0
G00752           N00963           N00168           40.000     0.0130   0 0 0 0
G00753           N00964           N02474           100.000    0.0130   0 0 0 0
G00754           N00965           N00169           60.000     0.0130   0 0 0 0
G00755           N00974           N00612           101.980    0.0130   0 0 0 0
G00756           N00975           N02753           82.462     0.0130   0 0 0 0
G00757           N00979           N00362           40.000     0.0130   0 0 0 0
G00758           N00980           N00026           28.284     0.0130   0 0 0 0
G00759           N00983           N00998           44.721     0.0130   0 0 0 0
G00760           N00984           N00999           44.721     0.0130   0 0 0 0
G00761           N00985           N00850           63.246     0.0130   0 0 0 0
G00762           N00986           N00985           161.245    0.0130   0 0 0 0
G00763           N00987           N00991           100.000    0.0130   0 0 0 0
G00764           N00988           N00483           72.111     0.0130   0 0 0 0
G00765           N00989           N00510           44.721     0.0130   0 0 0 0
G00766           N00990           N02278           100.000    0.0130   0 0 0 0
G00767           N00991           N00025           184.391    0.0130   0 0 0 0
G00768           N00992           N00985           72.111     0.0130   0 0 0 0
G00769           N00993           N02843           60.000     0.0130   0 0 0 0
G00770           N00994           N00987           60.000     0.0130   0 0 0 0
G00771           N00996           N00998           200.998    0.0130   0 0 0 0
G00772           N00997           N00998           56.569     0.0130   0 0 0 0
G00773           N00998           N00035           72.111     0.0130   0 0 0 0
G00774           N00999           N02278           60.000     0.0130   0 0 0 0
G00775           N01000           N02284           84.853     0.0130   0 0 0 0
G00776           N01001           N01000           126.491    0.0130   0 0 0 0
G00777           N01002           N00553           72.111     0.0130   0 0 0 0
G00778           N01003           N00552           40.000     0.0130   0 0 0 0
G00779           N01004           N01008           100.000    0.0130   0 0 0 0
G00780           N01006           N01001           63.246     0.0130   0 0 0 0
G00781           N01007           N02282           84.853     0.0130   0 0 0 0
G00782           N01008           N00034           80.000     0.0130   0 0 0 0
G00783           N01009           N00551           44.721     0.0130   0 0 0 0
G00784           N01010           N02782           84.853     0.0130   0 0 0 0
G00785           N01011           N01010           120.000    0.0130   0 0 0 0
G00786           N01012           N01013           172.047    0.0130   0 0 0 0
G00787           N01013           N02539           188.680    0.0130   0 0 0 0
G00788           N01015           N00724           60.000     0.0130   0 0 0 0
G00789           N01016           N00724           63.246     0.0130   0 0 0 0
G00790           N01019           N00920           72.111     0.0130   0 0 0 0
G00791           N01020           N01021           404.475    0.0130   0 0 0 0
G00792           N01021           N01023           82.462     0.0130   0 0 0 0
G00793           N01023           N01022           181.108    0.0130   0 0 0 0
G00794           N01024           N01020           60.000     0.0130   0 0 0 0
G00795           N01025           N00107           63.246     0.0130   0 0 0 0
G00796           N01026           N00107           82.462     0.0130   0 0 0 0
G00797           N01028           N01606           40.000     0.0130   0 0 0 0
G00798           N01029           N01751           121.655    0.0130   0 0 0 0
G00799           N01030           N02701           80.000     0.0130   0 0 0 0
G00800           N01031           N02700           44.721     0.0130   0 0 0 0
G00801           N01032           N00289           120.000    0.0130   0 0 0 0
G00802           N01033           N01030           82.462     0.0130   0 0 0 0
G00803           N01034           N00288           28.284     0.0130   0 0 0 0
G00804           N01035           N00286           28.284     0.0130   0 0 0 0
G00805           N01036           N01849           72.111     0.0130   0 0 0 0
G00806           N01037           N01551           44.721     0.0130   0 0 0 0
G00807           N01038           N01039           160.000    0.0130   0 0 0 0
G00808           N01039           N00280           40.000     0.0130   0 0 0 0
G00809           N01040           N02106           44.721     0.0130   0 0 0 0
G00810           N01042           N02079           164.924    0.0130   0 0 0 0
G00811           N01043           N01044           121.655    0.0130   0 0 0 0
G00812           N01044           N02522           89.443     0.0130   0 0 0 0
G00813           N01045           N01460           100.000    0.0130   0 0 0 0
G00814           N01046           N01056           89.443     0.0130   0 0 0 0
G00815           N01047           N01046           169.706    0.0130   0 0 0 0
G00816           N01048           N00932           181.108    0.0130   0 0 0 0
G00817           N01049           N01048           126.491    0.0130   0 0 0 0
G00818           N01050           N01049           152.315    0.0130   0 0 0 0
G00819           N01051           N02750           89.443     0.0130   0 0 0 0
G00820           N01052           N00779           63.246     0.0130   0 0 0 0
G00821           N01053           N01051           100.000    0.0130   0 0 0 0
G00822           N01054           N01053           180.000    0.0130   0 0 0 0
G00823           N01055           N01054           145.602    0.0130   0 0 0 0
G00824           N01056           N01055           161.245    0.0130   0 0 0 0
G00825           N01057           N00604           100.000    0.0130   0 0 0 0
G00826           N01058           N01585           40.000     0.0130   0 0 0 0
G00827           N01059           N00721           60.000     0.0130   0 0 0 0
G00828           N01060           N02752           100.000    0.0130   0 0 0 0
G00829           N01061           N01062           215.407    0.0130   0 0 0 0
G00830           N01062           N02245           28.284     0.0130   0 0 0 0
G00831           N01063           N02262           100.000    0.0130   0 0 0 0
G00832           N01064           N01065           145.602    0.0130   0 0 0 0
G00833           N01065           N02241           100.000    0.0130   0 0 0 0
G00834           N01066           N01067           126.491    0.0130   0 0 0 0
G00835           N01067           N01787           44.721     0.0130   0 0 0 0
G00836           N01068           N01069           203.961    0.0130   0 0 0 0
G00837           N01069           N00513           56.569     0.0130   0 0 0 0
G00838           N01070           N02006           63.246     0.0130   0 0 0 0
G00839           N01071           N02003           140.000    0.0130   0 0 0 0
G00840           N01072           N01073           181.108    0.0130   0 0 0 0
G00841           N01073           N01074           440.454    0.0130   0 0 0 0
G00842           N01074           N01993           100.000    0.0130   0 0 0 0
G00843           N01075           N01825           100.000    0.0130   0 0 0 0
G00844           N01076           N01341           44.721     0.0130   0 0 0 0
G00845           N01077           N00830           40.000     0.0130   0 0 0 0
G00846           N01078           N01903           28.284     0.0130   0 0 0 0
G00847           N01080           N01081           220.907    0.0130   0 0 0 0
G00848           N01082           N01488           82.462     0.0130   0 0 0 0
G00849           N01083           N00815           63.246     0.0130   0 0 0 0
G00850           N01084           N00240           72.111     0.0130   0 0 0 0
G00851           N01086           N02814           63.246     0.0130   0 0 0 0
G00852           N01089           N00607           63.246     0.0130   0 0 0 0
G00853           N01090           N02546           56.569     0.0130   0 0 0 0
G00854           N01091           N02781           100.000    0.0130   0 0 0 0
G00855           N01092           N01093           164.924    0.0130   0 0 0 0
G00856           N01093           N02408           228.035    0.0130   0 0 0 0
G00857           N01098           N01101           72.111     0.0130   0 0 0 0
G00858           N01100           N01101           89.443     0.0130   0 0 0 0
G00859           N01101           N01102           252.982    0.0130   0 0 0 0
G00860           N01102           N01103           120.000    0.0130   0 0 0 0
G00861           N01103           N01456           120.000    0.0130   0 0 0 0
G00862           N01111           N01966           100.000    0.0130   0 0 0 0
G00863           N01112           N01802           101.980    0.0130   0 0 0 0
G00864           N01113           N01115           28.284     0.0130   0 0 0 0
G00865           N01114           N01113           164.924    0.0130   0 0 0 0
G00866           N01115           N01358           100.000    0.0130   0 0 0 0
G00867           N01116           N02208           44.721     0.0130   0 0 0 0
G00868           N01117           N00021           100.000    0.0130   0 0 0 0
G00869           N01118           N00306           120.000    0.0130   0 0 0 0
G00870           N01119           N01120           240.000    0.0130   0 0 0 0
G00871           N01120           N01709           80.000     0.0130   0 0 0 0
G00872           N01121           N01996           72.111     0.0130   0 0 0 0
G00873           N01122           N01867           100.000    0.0130   0 0 0 0
G00874           N01123           N00336           80.000     0.0130   0 0 0 0
G00875           N01124           N00541           72.111     0.0130   0 0 0 0
G00876           N01125           N00389           56.569     0.0130   0 0 0 0
G00877           N01126           N01611           82.462     0.0130   0 0 0 0
G00878           N01127           N00347           63.246     0.0130   0 0 0 0
G00879           N01128           N01130           44.721     0.0130   0 0 0 0
G00880           N01129           N01127           100.000    0.0130   0 0 0 0
G00881           N01130           N01133           100.000    0.0130   0 0 0 0
G00882           N01131           N01129           40.000     0.0130   0 0 0 0
G00883           N01132           N01133           180.000    0.0130   0 0 0 0
G00884           N01133           N00347           60.000     0.0130   0 0 0 0
G00885           N01135           N01285           134.164    0.0130   0 0 0 0
G00886           N01137           N02447           89.443     0.0130   0 0 0 0
G00887           N01140           N02508           89.443     0.0130   0 0 0 0
G00888           N01141           N02511           121.655    0.0130   0 0 0 0
G00889           N01142           N01141           89.443     0.0130   0 0 0 0
G00890           N01143           N02414           82.462     0.0130   0 0 0 0
G00891           N01144           N01143           180.000    0.0130   0 0 0 0
G00892           N01145           N02413           63.246     0.0130   0 0 0 0
G00893           N01146           N01143           161.245    0.0130   0 0 0 0
G00894           N01147           N02413           82.462     0.0130   0 0 0 0
G00895           N01154           N02413           100.000    0.0130   0 0 0 0
G00896           N01158           N02294           82.462     0.0130   0 0 0 0
G00897           N01162           N01613           82.462     0.0130   0 0 0 0
G00898           N01163           N02745           56.569     0.0130   0 0 0 0
G00899           N01164           N00233           20.000     0.0130   0 0 0 0
G00900           N01166           N00590           63.246     0.0130   0 0 0 0
G00901           N01176           N01198           144.222    0.0130   0 0 0 0
G00902           N01185           N02590           60.000     0.0130   0 0 0 0
G00903           N01186           N00911           82.462     0.0130   0 0 0 0
G00904           N01204           N01304           107.703    0.0130   0 0 0 0
G00905           N01205           N01204           184.391    0.0130   0 0 0 0
G00906           N01206           N02160           82.462     0.0130   0 0 0 0
G00907           N01207           N02159           28.284     0.0130   0 0 0 0
G00908           N01208           N02141           60.000     0.0130   0 0 0 0
G00909           N01209           N00056           121.655    0.0130   0 0 0 0
G00910           N01210           N00864           107.703    0.0130   0 0 0 0
G00911           N01211           N02308           63.246     0.0130   0 0 0 0
G00912           N01212           N00863           44.721     0.0130   0 0 0 0
G00913           N01213           N02292           226.274    0.0130   0 0 0 0
G00914           N01215           N01214           140.000    0.0130   0 0 0 0
G00915           N01216           N01250           101.980    0.0130   0 0 0 0
G00916           N01218           N02305           100.000    0.0130   0 0 0 0
G00917           N01240           N02259           28.284     0.0130   0 0 0 0
G00918           N01241           N01240           184.391    0.0130   0 0 0 0
G00919           N01247           N02842           140.000    0.0130   0 0 0 0
G00920           N01248           N01638           44.721     0.0130   0 0 0 0
G00921           N01249           N01248           126.491    0.0130   0 0 0 0
G00922           N01250           N02305           100.000    0.0130   0 0 0 0
G00923           N01251           N02133           40.000     0.0130   0 0 0 0
G00924           N01252           N01251           161.245    0.0130   0 0 0 0
G00925           N01253           N01252           160.000    0.0130   0 0 0 0
G00926           N01254           N02128           63.246     0.0130   0 0 0 0
G00927           N01255           N02120           72.111     0.0130   0 0 0 0
G00928           N01256           N01973           44.721     0.0130   0 0 0 0
G00929           N01257           N01973           60.000     0.0130   0 0 0 0
G00930           N01258           N01973           63.246     0.0130   0 0 0 0
G00931           N01259           N02033           80.000     0.0130   0 0 0 0
G00932           N01260           N00053           82.462     0.0130   0 0 0 0
G00933           N01264           N02025           44.721     0.0130   0 0 0 0
G00934           N01265           N02015           44.721     0.0130   0 0 0 0
G00935           N01266           N01267           223.607    0.0130   0 0 0 0
G00936           N01267           N00686           44.721     0.0130   0 0 0 0
G00937           N01269           N01951           141.421    0.0130   0 0 0 0
G00938           N01270           N01269           260.000    0.0130   0 0 0 0
G00939           N01271           N01483           44.721     0.0130   0 0 0 0
G00940           N01272           N01274           184.391    0.0130   0 0 0 0
G00941           N01273           N02485           89.443     0.0130   0 0 0 0
G00942           N01274           N02485           82.462     0.0130   0 0 0 0
G00943           N01275           N00324           60.000     0.0130   0 0 0 0
G00944           N01276           N00318           260.768    0.0130   0 0 0 0
G00945           N01277           N02091           84.853     0.0130   0 0 0 0
G00946           N01278           N02105           63.246     0.0130   0 0 0 0
G00947           N01279           N02029           63.246     0.0130   0 0 0 0
G00948           N01280           N02430           164.924    0.0130   0 0 0 0
G00949           N01281           N01282           188.680    0.0130   0 0 0 0
G00950           N01282           N01587           113.137    0.0130   0 0 0 0
G00951           N01283           N01337           100.000    0.0130   0 0 0 0
G00952           N01284           N00700           82.462     0.0130   0 0 0 0
G00953           N01285           N01205           20.000     0.0130   0 0 0 0
G00954           N01286           N02425           80.000     0.0130   0 0 0 0
G00955           N01287           N01288           200.000    0.0130   0 0 0 0
G00956           N01288           N01666           160.000    0.0130   0 0 0 0
G00957           N01289           N02112           44.721     0.0130   0 0 0 0
G00958           N01290           N00877           28.284     0.0130   0 0 0 0
G00959           N01291           N02549           184.391    0.0130   0 0 0 0
G00960           N01292           N00271           20.000     0.0130   0 0 0 0
G00961           N01293           N01770           100.000    0.0130   0 0 0 0
G00962           N01294           N01297           63.246     0.0130   0 0 0 0
G00963           N01295           N01296           44.721     0.0130   0 0 0 0
G00964           N01296           N01297           184.391    0.0130   0 0 0 0
G00965           N01297           N01299           141.421    0.0130   0 0 0 0
G00966           N01298           N01296           120.000    0.0130   0 0 0 0
G00967           N01299           N00326           40.000     0.0130   0 0 0 0
G00968           N01300           N01496           44.721     0.0130   0 0 0 0
G00969           N01302           N02810           72.111     0.0130   0 0 0 0
G00970           N01303           N02798           100.000    0.0130   0 0 0 0
G00971           N01304           N01303           44.721     0.0130   0 0 0 0
G00972           N01305           N00619           63.246     0.0130   0 0 0 0
G00973           N01306           N00924           80.000     0.0130   0 0 0 0
G00974           N01307           N01306           82.462     0.0130   0 0 0 0
G00975           N01308           N01016           40.000     0.0130   0 0 0 0
G00976           N01309           N00724           100.000    0.0130   0 0 0 0
G00977           N01310           N01311           180.000    0.0130   0 0 0 0
G00978           N01311           N01312           107.703    0.0130   0 0 0 0
G00979           N01312           N01313           208.806    0.0130   0 0 0 0
G00980           N01313           N02435           82.462     0.0130   0 0 0 0
G00981           N01314           N02427           72.111     0.0130   0 0 0 0
G00982           N01315           N00724           89.443     0.0130   0 0 0 0
G00983           N01316           N01317           243.311    0.0130   0 0 0 0
G00984           N01317           N01306           100.000    0.0130   0 0 0 0
G00985           N01318           N00008           60.000     0.0130   0 0 0 0
G00986           N01319           N00724           63.246     0.0130   0 0 0 0
G00987           N01320           N01319           188.680    0.0130   0 0 0 0
G00988           N01324           N00513           63.246     0.0130   0 0 0 0
G00989           N01325           N02287           89.443     0.0130   0 0 0 0
G00990           N01326           N00571           44.721     0.0130   0 0 0 0
G00991           N01327           N01325           82.462     0.0130   0 0 0 0
G00992           N01328           N01505           100.000    0.0130   0 0 0 0
G00993           N01329           N00408           63.246     0.0130   0 0 0 0
G00994           N01330           N00411           28.284     0.0130   0 0 0 0
G00995           N01331           N01505           100.000    0.0130   0 0 0 0
G00996           N01332           N00314           44.721     0.0130   0 0 0 0
G00997           N01333           N00180           40.000     0.0130   0 0 0 0
G00998           N01334           N00167           100.000    0.0130   0 0 0 0
G00999           N01335           N01337           107.703    0.0130   0 0 0 0
G01000           N01336           N00314           60.000     0.0130   0 0 0 0
G01001           N01337           N00698           89.443     0.0130   0 0 0 0
G01002           N01338           N01802           120.000    0.0130   0 0 0 0
G01003           N01339           N02643           44.721     0.0130   0 0 0 0
G01004           N01340           N01911           100.000    0.0130   0 0 0 0
G01005           N01341           N01923           145.602    0.0130   0 0 0 0
G01006           N01342           N01266           44.721     0.0130   0 0 0 0
G01007           N01343           N00173           63.246     0.0130   0 0 0 0
G01008           N01344           N01346           60.000     0.0130   0 0 0 0
G01009           N01345           N01346           203.961    0.0130   0 0 0 0
G01010           N01346           N00957           44.721     0.0130   0 0 0 0
G01011           N01347           N01345           100.000    0.0130   0 0 0 0
G01012           N01348           N01345           89.443     0.0130   0 0 0 0
G01013           N01349           N01346           89.443     0.0130   0 0 0 0
G01014           N01350           N00213           100.000    0.0130   0 0 0 0
G01015           N01351           N01350           256.125    0.0130   0 0 0 0
G01016           N01352           N00369           72.111     0.0130   0 0 0 0
G01017           N01353           N00782           40.000     0.0130   0 0 0 0
G01018           N01354           N00775           80.000     0.0130   0 0 0 0
G01019           N01355           N00284           82.462     0.0130   0 0 0 0
G01020           N01358           N01434           84.853     0.0130   0 0 0 0
G01021           N01361           N02514           40.000     0.0130   0 0 0 0
G01022           N01362           N02105           100.000    0.0130   0 0 0 0
G01023           N01363           N01362           145.602    0.0130   0 0 0 0
G01024           N01364           N02105           100.000    0.0130   0 0 0 0
G01025           N01365           N02108           63.246     0.0130   0 0 0 0
G01026           N01366           N01915           84.853     0.0130   0 0 0 0
G01027           N01367           N01915           28.284     0.0130   0 0 0 0
G01028           N01368           N01920           44.721     0.0130   0 0 0 0
G01029           N01369           N01320           82.462     0.0130   0 0 0 0
G01030           N01370           N01026           100.000    0.0130   0 0 0 0
G01031           N01371           N01372           126.491    0.0130   0 0 0 0
G01032           N01372           N01369           82.462     0.0130   0 0 0 0
G01033           N01373           N01652           60.000     0.0130   0 0 0 0
G01034           N01374           N00007           100.000    0.0130   0 0 0 0
G01035           N01377           N02810           40.000     0.0130   0 0 0 0
G01036           N01378           N01209           44.721     0.0130   0 0 0 0
G01037           N01379           N02138           141.421    0.0130   0 0 0 0
G01038           N01380           N01045           82.462     0.0130   0 0 0 0
G01039           N01381           N00372           40.000     0.0130   0 0 0 0
G01040           N01382           N00371           72.111     0.0130   0 0 0 0
G01041           N01383           N00213           200.000    0.0130   0 0 0 0
G01042           N01384           N01383           72.111     0.0130   0 0 0 0
G01043           N01385           N02181           100.000    0.0130   0 0 0 0
G01044           N01386           N02179           63.246     0.0130   0 0 0 0
G01045           N01387           N01386           156.205    0.0130   0 0 0 0
G01046           N01388           N01387           84.853     0.0130   0 0 0 0
G01047           N01389           N01388           89.443     0.0130   0 0 0 0
G01048           N01390           N01389           84.853     0.0130   0 0 0 0
G01049           N01391           N00211           44.721     0.0130   0 0 0 0
G01050           N01392           N00371           100.000    0.0130   0 0 0 0
G01051           N01393           N00097           63.246     0.0130   0 0 0 0
G01052           N01394           N00093           63.246     0.0130   0 0 0 0
G01053           N01395           N00092           80.000     0.0130   0 0 0 0
G01054           N01396           N00092           60.000     0.0130   0 0 0 0
G01055           N01397           N02427           100.000    0.0130   0 0 0 0
G01056           N01398           N02426           40.000     0.0130   0 0 0 0
G01057           N01399           N01406           140.000    0.0130   0 0 0 0
G01058           N01400           N01399           181.108    0.0130   0 0 0 0
G01059           N01401           N01399           28.284     0.0130   0 0 0 0
G01060           N01402           N01399           260.768    0.0130   0 0 0 0
G01061           N01404           N02366           82.462     0.0130   0 0 0 0
G01062           N01405           N01399           100.000    0.0130   0 0 0 0
G01063           N01406           N02563           82.462     0.0130   0 0 0 0
G01064           N01407           N00619           56.569     0.0130   0 0 0 0
G01065           N01408           N01320           63.246     0.0130   0 0 0 0
G01066           N01409           N01408           184.391    0.0130   0 0 0 0
G01067           N01410           N01409           121.655    0.0130   0 0 0 0
G01068           N01411           N01025           100.000    0.0130   0 0 0 0
G01069           N01412           N02644           28.284     0.0130   0 0 0 0
G01070           N01413           N00708           72.111     0.0130   0 0 0 0
G01071           N01414           N01276           357.771    0.0130   0 0 0 0
G01072           N01420           N01841           141.421    0.0130   0 0 0 0
G01073           N01421           N01832           161.245    0.0130   0 0 0 0
G01074           N01422           N01854           63.246     0.0130   0 0 0 0
G01075           N01425           N01835           100.000    0.0130   0 0 0 0
G01076           N01426           N01854           60.000     0.0130   0 0 0 0
G01077           N01427           N01854           60.000     0.0130   0 0 0 0
G01078           N01428           N01834           63.246     0.0130   0 0 0 0
G01079           N01429           N01428           160.000    0.0130   0 0 0 0
G01080           N01430           N01032           44.721     0.0130   0 0 0 0
G01081           N01431           N01434           84.853     0.0130   0 0 0 0
G01082           N01432           N00300           28.284     0.0130   0 0 0 0
G01083           N01433           N00308           89.443     0.0130   0 0 0 0
G01084           N01434           N01435           160.000    0.0130   0 0 0 0
G01085           N01435           N01437           100.000    0.0130   0 0 0 0
G01086           N01436           N01437           84.853     0.0130   0 0 0 0
G01087           N01437           N01816           82.462     0.0130   0 0 0 0
G01088           N01438           N01437           100.000    0.0130   0 0 0 0
G01089           N01439           N01440           44.721     0.0130   0 0 0 0
G01090           N01440           N01806           100.000    0.0130   0 0 0 0
G01091           N01441           N01835           72.111     0.0130   0 0 0 0
G01092           N01442           N01441           152.315    0.0130   0 0 0 0
G01093           N01443           N01854           100.000    0.0130   0 0 0 0
G01094           N01444           N01441           63.246     0.0130   0 0 0 0
G01095           N01445           N01446           141.421    0.0130   0 0 0 0
G01096           N01446           N01814           28.284     0.0130   0 0 0 0
G01097           N01447           N01448           200.998    0.0130   0 0 0 0
G01098           N01448           N01449           120.000    0.0130   0 0 0 0
G01099           N01449           N01841           180.000    0.0130   0 0 0 0
G01100           N01450           N01451           80.000     0.0130   0 0 0 0
G01101           N01451           N01452           161.245    0.0130   0 0 0 0
G01102           N01452           N01728           44.721     0.0130   0 0 0 0
G01103           N01453           N00300           100.000    0.0130   0 0 0 0
G01104           N01454           N00891           100.000    0.0130   0 0 0 0
G01105           N01455           N01454           56.569     0.0130   0 0 0 0
G01106           N01456           N01455           160.000    0.0130   0 0 0 0
G01107           N01457           N02081           152.315    0.0130   0 0 0 0
G01108           N01458           N01141           82.462     0.0130   0 0 0 0
G01109           N01459           N00769           80.000     0.0130   0 0 0 0
G01110           N01460           N00156           63.246     0.0130   0 0 0 0
G01111           N01461           N01460           220.907    0.0130   0 0 0 0
G01112           N01462           N00156           145.602    0.0130   0 0 0 0
G01113           N01463           N00114           100.000    0.0130   0 0 0 0
G01114           N01464           N00115           82.462     0.0130   0 0 0 0
G01115           N01465           N00148           82.462     0.0130   0 0 0 0
G01116           N01466           N01954           82.462     0.0130   0 0 0 0
G01117           N01467           N00795           100.000    0.0130   0 0 0 0
G01118           N01468           N00105           63.246     0.0130   0 0 0 0
G01119           N01469           N01468           60.000     0.0130   0 0 0 0
G01120           N01470           N01388           84.853     0.0130   0 0 0 0
G01121           N01471           N02178           100.000    0.0130   0 0 0 0
G01122           N01472           N02181           44.721     0.0130   0 0 0 0
G01123           N01474           N02699           89.443     0.0130   0 0 0 0
G01124           N01475           N00196           128.062    0.0130   0 0 0 0
G01125           N01477           N01476           40.000     0.0130   0 0 0 0
G01126           N01478           N01476           100.000    0.0130   0 0 0 0
G01127           N01479           N01481           82.462     0.0130   0 0 0 0
G01128           N01480           N01479           161.245    0.0130   0 0 0 0
G01129           N01481           N02608           184.391    0.0130   0 0 0 0
G01130           N01482           N00964           89.443     0.0130   0 0 0 0
G01131           N01483           N01484           203.961    0.0130   0 0 0 0
G01132           N01484           N00808           60.000     0.0130   0 0 0 0
G01133           N01485           N01486           113.137    0.0130   0 0 0 0
G01134           N01486           N00223           40.000     0.0130   0 0 0 0
G01135           N01487           N00329           72.111     0.0130   0 0 0 0
G01136           N01488           N00329           63.246     0.0130   0 0 0 0
G01137           N01489           N01608           100.000    0.0130   0 0 0 0
G01138           N01490           N01607           40.000     0.0130   0 0 0 0
G01139           N01491           N00015           63.246     0.0130   0 0 0 0
G01140           N01492           N01491           181.108    0.0130   0 0 0 0
G01141           N01493           N01295           80.000     0.0130   0 0 0 0
G01142           N01494           N02364           220.907    0.0130   0 0 0 0
G01143           N01495           N01496           28.284     0.0130   0 0 0 0
G01144           N01496           N01494           160.000    0.0130   0 0 0 0
G01145           N01497           N01098           56.569     0.0130   0 0 0 0
G01146           N01498           N01497           282.843    0.0130   0 0 0 0
G01147           N01499           N01498           82.462     0.0130   0 0 0 0
G01148           N01500           N00325           140.000    0.0130   0 0 0 0
G01149           N01501           N01502           160.000    0.0130   0 0 0 0
G01150           N01502           N01300           63.246     0.0130   0 0 0 0
G01151           N01503           N00669           63.246     0.0130   0 0 0 0
G01152           N01504           N00863           60.000     0.0130   0 0 0 0
G01153           N01505           N00408           44.721     0.0130   0 0 0 0
G01154           N01508           N00537           40.000     0.0130   0 0 0 0
G01155           N01510           N00589           169.706    0.0130   0 0 0 0
G01156           N01511           N00589           44.721     0.0130   0 0 0 0
G01157           N01512           N02804           72.111     0.0130   0 0 0 0
G01158           N01513           N02803           44.721     0.0130   0 0 0 0
G01159           N01514           N00067           44.721     0.0130   0 0 0 0
G01160           N01515           N01516           121.655    0.0130   0 0 0 0
G01161           N01516           N01517           181.108    0.0130   0 0 0 0
G01162           N01517           N00013           82.462     0.0130   0 0 0 0
G01163           N01519           N00330           80.000     0.0130   0 0 0 0
G01164           N01520           N02802           72.111     0.0130   0 0 0 0
G01165           N01521           N01520           220.000    0.0130   0 0 0 0
G01166           N01522           N00627           28.284     0.0130   0 0 0 0
G01167           N01523           N00628           82.462     0.0130   0 0 0 0
G01168           N01524           N02722           82.462     0.0130   0 0 0 0
G01169           N01525           N02132           63.246     0.0130   0 0 0 0
G01170           N01526           N02127           100.000    0.0130   0 0 0 0
G01171           N01527           N00990           63.246     0.0130   0 0 0 0
G01172           N01528           N01004           121.655    0.0130   0 0 0 0
G01173           N01529           N01528           72.111     0.0130   0 0 0 0
G01174           N01530           N02835           28.284     0.0130   0 0 0 0
G01175           N01531           N02834           63.246     0.0130   0 0 0 0
G01176           N01532           N01528           84.853     0.0130   0 0 0 0
G01177           N01533           N00586           89.443     0.0130   0 0 0 0
G01178           N01534           N01594           60.000     0.0130   0 0 0 0
G01179           N01535           N01536           196.977    0.0130   0 0 0 0
G01180           N01536           N02595           40.000     0.0130   0 0 0 0
G01181           N01537           N00228           40.000     0.0130   0 0 0 0
G01182           N01538           N00218           20.000     0.0130   0 0 0 0
G01183           N01539           N00264           100.000    0.0130   0 0 0 0
G01184           N01540           N00821           72.111     0.0130   0 0 0 0
G01185           N01541           N00241           100.000    0.0130   0 0 0 0
G01186           N01542           N00217           20.000     0.0130   0 0 0 0
G01187           N01543           N01544           161.245    0.0130   0 0 0 0
G01188           N01544           N02493           72.111     0.0130   0 0 0 0
G01189           N01547           N02704           82.462     0.0130   0 0 0 0
G01190           N01548           N00889           72.111     0.0130   0 0 0 0
G01191           N01549           N00882           20.000     0.0130   0 0 0 0
G01192           N01550           N01666           89.443     0.0130   0 0 0 0
G01193           N01551           N00281           28.284     0.0130   0 0 0 0
G01194           N01552           N00282           89.443     0.0130   0 0 0 0
G01195           N01553           N01966           56.569     0.0130   0 0 0 0
G01196           N01554           N00276           72.111     0.0130   0 0 0 0
G01197           N01555           N01554           141.421    0.0130   0 0 0 0
G01198           N01559           N01728           72.111     0.0130   0 0 0 0
G01199           N01560           N02053           28.284     0.0130   0 0 0 0
G01200           N01561           N01560           228.035    0.0130   0 0 0 0
G01201           N01562           N01533           20.000     0.0130   0 0 0 0
G01202           N01563           N00589           63.246     0.0130   0 0 0 0
G01203           N01564           N01596           84.853     0.0130   0 0 0 0
G01204           N01565           N00591           234.094    0.0130   0 0 0 0
G01205           N01566           N01565           126.491    0.0130   0 0 0 0
G01206           N01572           N00229           101.980    0.0130   0 0 0 0
G01207           N01573           N00270           80.000     0.0130   0 0 0 0
G01208           N01574           N01780           80.000     0.0130   0 0 0 0
G01209           N01575           N01574           160.000    0.0130   0 0 0 0
G01210           N01576           N01788           80.000     0.0130   0 0 0 0
G01211           N01577           N02316           89.443     0.0130   0 0 0 0
G01212           N01578           N01579           160.000    0.0130   0 0 0 0
G01213           N01579           N00026           20.000     0.0130   0 0 0 0
G01214           N01580           N01991           278.568    0.0130   0 0 0 0
G01215           N01581           N01072           63.246     0.0130   0 0 0 0
G01216           N01582           N01581           82.462     0.0130   0 0 0 0
G01217           N01583           N00054           63.246     0.0130   0 0 0 0
G01218           N01584           N00172           82.462     0.0130   0 0 0 0
G01219           N01585           N01588           100.000    0.0130   0 0 0 0
G01220           N01586           N01585           72.111     0.0130   0 0 0 0
G01221           N01587           N00616           56.569     0.0130   0 0 0 0
G01222           N01588           N00721           44.721     0.0130   0 0 0 0
G01223           N01591           N02827           60.000     0.0130   0 0 0 0
G01224           N01594           N00597           100.000    0.0130   0 0 0 0
G01225           N01595           N01598           89.443     0.0130   0 0 0 0
G01226           N01596           N00589           44.721     0.0130   0 0 0 0
G01227           N01597           N00589           63.246     0.0130   0 0 0 0
G01228           N01598           N00597           100.000    0.0130   0 0 0 0
G01229           N01599           N02740           63.246     0.0130   0 0 0 0
G01230           N01601           N01353           63.246     0.0130   0 0 0 0
G01231           N01602           N01353           82.462     0.0130   0 0 0 0
G01232           N01606           N01607           141.421    0.0130   0 0 0 0
G01233           N01607           N01608           128.062    0.0130   0 0 0 0
G01234           N01608           N01491           40.000     0.0130   0 0 0 0
G01235           N01609           N00387           82.462     0.0130   0 0 0 0
G01236           N01610           N01609           188.680    0.0130   0 0 0 0
G01237           N01611           N01012           178.885    0.0130   0 0 0 0
G01238           N01612           N01883           89.443     0.0130   0 0 0 0
G01239           N01613           N00631           72.111     0.0130   0 0 0 0
G01240           N01614           N00631           82.462     0.0130   0 0 0 0
G01241           N01615           N01614           181.108    0.0130   0 0 0 0
G01242           N01616           N01617           152.315    0.0130   0 0 0 0
G01243           N01617           N02383           56.569     0.0130   0 0 0 0
G01244           N01618           N01619           89.443     0.0130   0 0 0 0
G01245           N01619           N00656           101.980    0.0130   0 0 0 0
G01246           N01620           N01619           28.284     0.0130   0 0 0 0
G01247           N01621           N02802           44.721     0.0130   0 0 0 0
G01248           N01622           N02824           20.000     0.0130   0 0 0 0
G01249           N01623           N02824           28.284     0.0130   0 0 0 0
G01250           N01624           N01625           152.315    0.0130   0 0 0 0
G01251           N01625           N02375           82.462     0.0130   0 0 0 0
G01252           N01626           N01080           161.245    0.0130   0 0 0 0
G01253           N01627           N02824           100.000    0.0130   0 0 0 0
G01254           N01628           N01629           233.238    0.0130   0 0 0 0
G01255           N01629           N02605           100.000    0.0130   0 0 0 0
G01256           N01630           N01631           170.880    0.0130   0 0 0 0
G01257           N01631           N02383           63.246     0.0130   0 0 0 0
G01258           N01632           N00959           82.462     0.0130   0 0 0 0
G01259           N01634           N02383           44.721     0.0130   0 0 0 0
G01260           N01635           N01638           20.000     0.0130   0 0 0 0
G01261           N01636           N00643           89.443     0.0130   0 0 0 0
G01262           N01637           N01639           100.000    0.0130   0 0 0 0
G01263           N01638           N01637           161.245    0.0130   0 0 0 0
G01264           N01639           N00646           63.246     0.0130   0 0 0 0
G01265           N01640           N01642           63.246     0.0130   0 0 0 0
G01266           N01641           N01636           80.000     0.0130   0 0 0 0
G01267           N01642           N00631           60.000     0.0130   0 0 0 0
G01268           N01643           N00329           82.462     0.0130   0 0 0 0
G01269           N01645           N00092           72.111     0.0130   0 0 0 0
G01270           N01646           N01645           178.885    0.0130   0 0 0 0
G01271           N01647           N01516           44.721     0.0130   0 0 0 0
G01272           N01648           N00012           100.000    0.0130   0 0 0 0
G01273           N01649           N01648           120.000    0.0130   0 0 0 0
G01274           N01650           N01649           184.391    0.0130   0 0 0 0
G01275           N01651           N01650           240.832    0.0130   0 0 0 0
G01276           N01652           N01651           120.000    0.0130   0 0 0 0
G01277           N01653           N01584           72.111     0.0130   0 0 0 0
G01278           N01654           N01493           56.569     0.0130   0 0 0 0
G01279           N01655           N00692           121.655    0.0130   0 0 0 0
G01280           N01656           N00692           164.924    0.0130   0 0 0 0
G01281           N01657           N01656           80.000     0.0130   0 0 0 0
G01282           N01658           N01931           63.246     0.0130   0 0 0 0
G01283           N01659           N00174           113.137    0.0130   0 0 0 0
G01284           N01660           N01659           161.245    0.0130   0 0 0 0
G01285           N01661           N02607           72.111     0.0130   0 0 0 0
G01286           N01662           N00167           172.047    0.0130   0 0 0 0
G01287           N01663           N02824           60.000     0.0130   0 0 0 0
G01288           N01665           N01288           200.998    0.0130   0 0 0 0
G01289           N01666           N01667           82.462     0.0130   0 0 0 0
G01290           N01667           N01668           160.000    0.0130   0 0 0 0
G01291           N01668           N01526           44.721     0.0130   0 0 0 0
G01292           N01669           N01667           28.284     0.0130   0 0 0 0
G01293           N01677           N01102           220.907    0.0130   0 0 0 0
G01294           N01678           N01454           63.246     0.0130   0 0 0 0
G01295           N01681           N01539           63.246     0.0130   0 0 0 0
G01296           N01682           N00302           44.721     0.0130   0 0 0 0
G01297           N01683           N01688           20.000     0.0130   0 0 0 0
G01298           N01684           N01683           181.108    0.0130   0 0 0 0
G01299           N01686           N01685           200.000    0.0130   0 0 0 0
G01300           N01687           N01688           160.000    0.0130   0 0 0 0
G01301           N01688           N01685           40.000     0.0130   0 0 0 0
G01302           N01689           N01539           72.111     0.0130   0 0 0 0
G01303           N01690           N01119           80.000     0.0130   0 0 0 0
G01304           N01691           N01451           44.721     0.0130   0 0 0 0
G01305           N01692           N01693           180.000    0.0130   0 0 0 0
G01306           N01693           N01123           100.000    0.0130   0 0 0 0
G01307           N01694           N01695           161.245    0.0130   0 0 0 0
G01308           N01695           N01788           100.000    0.0130   0 0 0 0
G01309           N01696           N01694           120.000    0.0130   0 0 0 0
G01310           N01697           N01725           20.000     0.0130   0 0 0 0
G01311           N01698           N01721           28.284     0.0130   0 0 0 0
G01312           N01699           N01766           82.462     0.0130   0 0 0 0
G01313           N01700           N01701           140.000    0.0130   0 0 0 0
G01314           N01701           N02445           100.000    0.0130   0 0 0 0
G01315           N01702           N01707           40.000     0.0130   0 0 0 0
G01316           N01703           N01710           100.000    0.0130   0 0 0 0
G01317           N01704           N01703           161.245    0.0130   0 0 0 0
G01318           N01705           N00285           100.000    0.0130   0 0 0 0
G01319           N01706           N01788           28.284     0.0130   0 0 0 0
G01320           N01707           N01706           141.421    0.0130   0 0 0 0
G01321           N01708           N01788           44.721     0.0130   0 0 0 0
G01322           N01709           N01708           220.907    0.0130   0 0 0 0
G01323           N01710           N01788           40.000     0.0130   0 0 0 0
G01324           N01711           N00290           100.000    0.0130   0 0 0 0
G01325           N01712           N01780           82.462     0.0130   0 0 0 0
G01326           N01713           N01575           100.000    0.0130   0 0 0 0
G01327           N01714           N01575           72.111     0.0130   0 0 0 0
G01328           N01715           N01575           72.111     0.0130   0 0 0 0
G01329           N01716           N01575           89.443     0.0130   0 0 0 0
G01330           N01717           N01721           100.000    0.0130   0 0 0 0
G01331           N01718           N01720           40.000     0.0130   0 0 0 0
G01332           N01719           N01716           82.462     0.0130   0 0 0 0
G01333           N01720           N01722           200.000    0.0130   0 0 0 0
G01334           N01721           N01720           240.832    0.0130   0 0 0 0
G01335           N01722           N01726           40.000     0.0130   0 0 0 0
G01336           N01723           N01720           180.000    0.0130   0 0 0 0
G01337           N01724           N01729           20.000     0.0130   0 0 0 0
G01338           N01725           N01733           28.284     0.0130   0 0 0 0
G01339           N01726           N01727           200.000    0.0130   0 0 0 0
G01340           N01727           N01756           89.443     0.0130   0 0 0 0
G01341           N01728           N01729           161.245    0.0130   0 0 0 0
G01342           N01729           N01726           28.284     0.0130   0 0 0 0
G01343           N01730           N01728           20.000     0.0130   0 0 0 0
G01344           N01731           N01575           60.000     0.0130   0 0 0 0
G01345           N01732           N01575           40.000     0.0130   0 0 0 0
G01346           N01733           N01734           200.000    0.0130   0 0 0 0
G01347           N01734           N01726           60.000     0.0130   0 0 0 0
G01348           N01735           N02810           60.000     0.0130   0 0 0 0
G01349           N01736           N00290           60.000     0.0130   0 0 0 0
G01350           N01737           N01720           20.000     0.0130   0 0 0 0
G01351           N01738           N01451           40.000     0.0130   0 0 0 0
G01352           N01739           N01728           44.721     0.0130   0 0 0 0
G01353           N01740           N01559           63.246     0.0130   0 0 0 0
G01354           N01741           N01728           56.569     0.0130   0 0 0 0
G01355           N01742           N01451           28.284     0.0130   0 0 0 0
G01356           N01743           N01500           63.246     0.0130   0 0 0 0
G01357           N01744           N01496           100.000    0.0130   0 0 0 0
G01358           N01745           N01491           72.111     0.0130   0 0 0 0
G01359           N01746           N01501           44.721     0.0130   0 0 0 0
G01360           N01747           N01748           145.602    0.0130   0 0 0 0
G01361           N01748           N00327           100.000    0.0130   0 0 0 0
G01362           N01749           N01029           184.391    0.0130   0 0 0 0
G01363           N01750           N01577           28.284     0.0130   0 0 0 0
G01364           N01751           N01752           161.245    0.0130   0 0 0 0
G01365           N01752           N00015           63.246     0.0130   0 0 0 0
G01366           N01753           N01751           20.000     0.0130   0 0 0 0
G01367           N01754           N01728           80.000     0.0130   0 0 0 0
G01368           N01755           N01500           89.443     0.0130   0 0 0 0
G01369           N01756           N01743           121.655    0.0130   0 0 0 0
G01370           N01757           N01790           20.000     0.0130   0 0 0 0
G01371           N01759           N01780           72.111     0.0130   0 0 0 0
G01372           N01760           N00345           40.000     0.0130   0 0 0 0
G01373           N01761           N01762           181.108    0.0130   0 0 0 0
G01374           N01762           N01029           20.000     0.0130   0 0 0 0
G01375           N01763           N01764           20.000     0.0130   0 0 0 0
G01376           N01764           N01753           200.000    0.0130   0 0 0 0
G01377           N01765           N01755           63.246     0.0130   0 0 0 0
G01378           N01766           N01728           40.000     0.0130   0 0 0 0
G01379           N01767           N01500           80.000     0.0130   0 0 0 0
G01380           N01768           N01500           82.462     0.0130   0 0 0 0
G01381           N01769           N01756           82.462     0.0130   0 0 0 0
G01382           N01770           N01769           240.000    0.0130   0 0 0 0
G01383           N01771           N01756           80.000     0.0130   0 0 0 0
G01384           N01772           N01770           40.000     0.0130   0 0 0 0
G01385           N01773           N01772           200.998    0.0130   0 0 0 0
G01386           N01774           N01775           180.000    0.0130   0 0 0 0
G01387           N01775           N01771           100.000    0.0130   0 0 0 0
G01388           N01776           N01783           63.246     0.0130   0 0 0 0
G01389           N01777           N00674           120.000    0.0130   0 0 0 0
G01390           N01778           N01780           63.246     0.0130   0 0 0 0
G01391           N01779           N01780           44.721     0.0130   0 0 0 0
G01392           N01780           N01777           82.462     0.0130   0 0 0 0
G01393           N01781           N01780           28.284     0.0130   0 0 0 0
G01394           N01782           N01770           44.721     0.0130   0 0 0 0
G01395           N01783           N01780           40.000     0.0130   0 0 0 0
G01396           N01784           N01757           200.998    0.0130   0 0 0 0
G01397           N01785           N01066           80.000     0.0130   0 0 0 0
G01398           N01786           N01787           28.284     0.0130   0 0 0 0
G01399           N01787           N01757           181.108    0.0130   0 0 0 0
G01400           N01788           N01757           220.000    0.0130   0 0 0 0
G01401           N01790           N01686           28.284     0.0130   0 0 0 0
G01402           N01791           N00300           89.443     0.0130   0 0 0 0
G01403           N01792           N01802           60.000     0.0130   0 0 0 0
G01404           N01793           N01996           60.000     0.0130   0 0 0 0
G01405           N01794           N01795           220.907    0.0130   0 0 0 0
G01406           N01795           N01808           44.721     0.0130   0 0 0 0
G01407           N01796           N01793           56.569     0.0130   0 0 0 0
G01408           N01797           N00309           72.111     0.0130   0 0 0 0
G01409           N01798           N01800           82.462     0.0130   0 0 0 0
G01410           N01799           N01803           200.998    0.0130   0 0 0 0
G01411           N01800           N01799           28.284     0.0130   0 0 0 0
G01412           N01801           N01800           161.245    0.0130   0 0 0 0
G01413           N01802           N01805           200.000    0.0130   0 0 0 0
G01414           N01803           N01814           20.000     0.0130   0 0 0 0
G01415           N01804           N01803           160.000    0.0130   0 0 0 0
G01416           N01805           N01799           60.000     0.0130   0 0 0 0
G01417           N01806           N01802           200.000    0.0130   0 0 0 0
G01418           N01807           N01814           28.284     0.0130   0 0 0 0
G01419           N01808           N01814           100.000    0.0130   0 0 0 0
G01420           N01809           N01808           220.000    0.0130   0 0 0 0
G01421           N01810           N01807           80.000     0.0130   0 0 0 0
G01422           N01811           N01966           100.000    0.0130   0 0 0 0
G01423           N01812           N01802           100.000    0.0130   0 0 0 0
G01424           N01813           N01814           223.607    0.0130   0 0 0 0
G01425           N01814           N01841           340.000    0.0130   0 0 0 0
G01426           N01815           N01799           20.000     0.0130   0 0 0 0
G01427           N01816           N01806           20.000     0.0130   0 0 0 0
G01428           N01817           N01806           28.284     0.0130   0 0 0 0
G01429           N01818           N01894           89.443     0.0130   0 0 0 0
G01430           N01819           N01831           56.569     0.0130   0 0 0 0
G01431           N01820           N01441           56.569     0.0130   0 0 0 0
G01432           N01821           N01837           40.000     0.0130   0 0 0 0
G01433           N01822           N02614           44.721     0.0130   0 0 0 0
G01434           N01823           N01074           28.284     0.0130   0 0 0 0
G01435           N01824           N01823           320.000    0.0130   0 0 0 0
G01436           N01825           N01073           80.000     0.0130   0 0 0 0
G01437           N01826           N01994           63.246     0.0130   0 0 0 0
G01438           N01827           N01440           60.000     0.0130   0 0 0 0
G01439           N01830           N01822           220.000    0.0130   0 0 0 0
G01440           N01831           N01832           160.000    0.0130   0 0 0 0
G01441           N01832           N01429           20.000     0.0130   0 0 0 0
G01442           N01833           N01032           84.853     0.0130   0 0 0 0
G01443           N01834           N02476           56.569     0.0130   0 0 0 0
G01444           N01835           N01439           140.000    0.0130   0 0 0 0
G01445           N01836           N01835           84.853     0.0130   0 0 0 0
G01446           N01837           N01838           300.666    0.0130   0 0 0 0
G01447           N01838           N01839           141.421    0.0130   0 0 0 0
G01448           N01839           N01845           72.111     0.0130   0 0 0 0
G01449           N01840           N01429           100.000    0.0130   0 0 0 0
G01450           N01841           N01837           28.284     0.0130   0 0 0 0
G01451           N01842           N01420           40.000     0.0130   0 0 0 0
G01452           N01843           N01836           56.569     0.0130   0 0 0 0
G01453           N01844           N01441           63.246     0.0130   0 0 0 0
G01454           N01846           N01837           82.462     0.0130   0 0 0 0
G01455           N01847           N01858           101.980    0.0130   0 0 0 0
G01456           N01849           N02701           80.000     0.0130   0 0 0 0
G01457           N01850           N01851           180.000    0.0130   0 0 0 0
G01458           N01851           N01859           28.284     0.0130   0 0 0 0
G01459           N01852           N01831           40.000     0.0130   0 0 0 0
G01460           N01853           N01834           63.246     0.0130   0 0 0 0
G01461           N01854           N02476           100.000    0.0130   0 0 0 0
G01462           N01855           N01032           72.111     0.0130   0 0 0 0
G01463           N01856           N01833           82.462     0.0130   0 0 0 0
G01464           N01857           N02716           63.246     0.0130   0 0 0 0
G01465           N01858           N01859           44.721     0.0130   0 0 0 0
G01466           N01859           N01860           200.998    0.0130   0 0 0 0
G01467           N01860           N01866           80.000     0.0130   0 0 0 0
G01468           N01861           N01859           180.000    0.0130   0 0 0 0
G01469           N01862           N01866           40.000     0.0130   0 0 0 0
G01470           N01863           N01866           20.000     0.0130   0 0 0 0
G01471           N01864           N02753           56.569     0.0130   0 0 0 0
G01472           N01865           N01868           28.284     0.0130   0 0 0 0
G01473           N01866           N01865           180.000    0.0130   0 0 0 0
G01474           N01867           N00876           28.284     0.0130   0 0 0 0
G01475           N01869           N01868           100.000    0.0130   0 0 0 0
G01476           N01870           N00333           63.246     0.0130   0 0 0 0
G01477           N01871           N02213           82.462     0.0130   0 0 0 0
G01478           N01872           N02715           63.246     0.0130   0 0 0 0
G01479           N01873           N00217           72.111     0.0130   0 0 0 0
G01480           N01874           N00817           44.721     0.0130   0 0 0 0
G01481           N01876           N01066           100.000    0.0130   0 0 0 0
G01482           N01877           N02625           40.000     0.0130   0 0 0 0
G01483           N01878           N02625           63.246     0.0130   0 0 0 0
G01484           N01879           N00826           63.246     0.0130   0 0 0 0
G01485           N01880           N00826           56.569     0.0130   0 0 0 0
G01486           N01881           N00824           101.980    0.0130   0 0 0 0
G01487           N01882           N00220           89.443     0.0130   0 0 0 0
G01488           N01883           N01877           240.000    0.0130   0 0 0 0
G01489           N01884           N01355           100.000    0.0130   0 0 0 0
G01490           N01885           N01066           82.462     0.0130   0 0 0 0
G01491           N01886           N01884           44.721     0.0130   0 0 0 0
G01492           N01887           N01888           145.602    0.0130   0 0 0 0
G01493           N01888           N01889           141.421    0.0130   0 0 0 0
G01494           N01889           N00276           80.000     0.0130   0 0 0 0
G01495           N01890           N01891           164.924    0.0130   0 0 0 0
G01496           N01891           N01989           100.000    0.0130   0 0 0 0
G01497           N01892           N01891           28.284     0.0130   0 0 0 0
G01498           N01893           N01890           63.246     0.0130   0 0 0 0
G01499           N01894           N01993           100.000    0.0130   0 0 0 0
G01500           N01895           N01072           80.000     0.0130   0 0 0 0
G01501           N01896           N01993           80.000     0.0130   0 0 0 0
G01502           N01897           N01072           44.721     0.0130   0 0 0 0
G01503           N01898           N01581           63.246     0.0130   0 0 0 0
G01504           N01899           N00831           141.421    0.0130   0 0 0 0
G01505           N01900           N01925           60.000     0.0130   0 0 0 0
G01506           N01901           N01900           161.245    0.0130   0 0 0 0
G01507           N01902           N01900           89.443     0.0130   0 0 0 0
G01508           N01903           N01368           345.254    0.0130   0 0 0 0
G01509           N01904           N01915           89.443     0.0130   0 0 0 0
G01510           N01905           N01904           401.995    0.0130   0 0 0 0
G01511           N01906           N01925           72.111     0.0130   0 0 0 0
G01512           N01907           N01900           82.462     0.0130   0 0 0 0
G01513           N01908           N01915           60.000     0.0130   0 0 0 0
G01514           N01910           N01341           56.569     0.0130   0 0 0 0
G01515           N01911           N00210           72.111     0.0130   0 0 0 0
G01516           N01912           N00205           44.721     0.0130   0 0 0 0
G01517           N01913           N02429           100.000    0.0130   0 0 0 0
G01518           N01914           N02787           84.853     0.0130   0 0 0 0
G01519           N01915           N01916           362.215    0.0130   0 0 0 0
G01520           N01916           N01341           60.000     0.0130   0 0 0 0
G01521           N01917           N01918           161.245    0.0130   0 0 0 0
G01522           N01918           N01915           63.246     0.0130   0 0 0 0
G01523           N01919           N01920           200.998    0.0130   0 0 0 0
G01524           N01920           N01915           80.000     0.0130   0 0 0 0
G01525           N01921           N01903           40.000     0.0130   0 0 0 0
G01526           N01922           N00679           44.721     0.0130   0 0 0 0
G01527           N01923           N01927           141.421    0.0130   0 0 0 0
G01528           N01924           N01899           28.284     0.0130   0 0 0 0
G01529           N01925           N01938           44.721     0.0130   0 0 0 0
G01530           N01926           N01930           60.000     0.0130   0 0 0 0
G01531           N01927           N01930           101.980    0.0130   0 0 0 0
G01532           N01928           N00182           82.462     0.0130   0 0 0 0
G01533           N01929           N00828           80.000     0.0130   0 0 0 0
G01534           N01931           N00202           80.000     0.0130   0 0 0 0
G01535           N01932           N00692           82.462     0.0130   0 0 0 0
G01536           N01933           N00209           40.000     0.0130   0 0 0 0
G01537           N01934           N02518           101.980    0.0130   0 0 0 0
G01538           N01935           N01903           63.246     0.0130   0 0 0 0
G01539           N01936           N01935           180.000    0.0130   0 0 0 0
G01540           N01937           N01905           40.000     0.0130   0 0 0 0
G01541           N01938           N01939           126.491    0.0130   0 0 0 0
G01542           N01939           N01903           72.111     0.0130   0 0 0 0
G01543           N01940           N02706           89.443     0.0130   0 0 0 0
G01544           N01941           N01272           44.721     0.0130   0 0 0 0
G01545           N01942           N01270           40.000     0.0130   0 0 0 0
G01546           N01943           N00800           164.924    0.0130   0 0 0 0
G01547           N01944           N01945           223.607    0.0130   0 0 0 0
G01548           N01945           N01466           89.443     0.0130   0 0 0 0
G01549           N01946           N02705           56.569     0.0130   0 0 0 0
G01550           N01947           N02705           72.111     0.0130   0 0 0 0
G01551           N01948           N01466           100.000    0.0130   0 0 0 0
G01552           N01949           N01940           82.462     0.0130   0 0 0 0
G01553           N01950           N01269           180.000    0.0130   0 0 0 0
G01554           N01951           N01952           141.421    0.0130   0 0 0 0
G01555           N01952           N02623           56.569     0.0130   0 0 0 0
G01556           N01953           N01273           72.111     0.0130   0 0 0 0
G01557           N01954           N00104           100.000    0.0130   0 0 0 0
G01558           N01955           N00794           120.000    0.0130   0 0 0 0
G01559           N01956           N02146           20.000     0.0130   0 0 0 0
G01560           N01957           N02033           82.462     0.0130   0 0 0 0
G01561           N01958           N01973           72.111     0.0130   0 0 0 0
G01562           N01959           N01974           63.246     0.0130   0 0 0 0
G01563           N01960           N01959           260.768    0.0130   0 0 0 0
G01564           N01961           N01256           63.246     0.0130   0 0 0 0
G01565           N01962           N01939           141.421    0.0130   0 0 0 0
G01566           N01963           N01964           180.000    0.0130   0 0 0 0
G01567           N01964           N01938           84.853     0.0130   0 0 0 0
G01568           N01965           N00688           80.000     0.0130   0 0 0 0
G01569           N01966           N01888           89.443     0.0130   0 0 0 0
G01570           N01967           N01888           60.000     0.0130   0 0 0 0
G01571           N01968           N01967           181.108    0.0130   0 0 0 0
G01572           N01969           N01965           100.000    0.0130   0 0 0 0
G01573           N01970           N01936           20.000     0.0130   0 0 0 0
G01574           N01971           N01888           63.246     0.0130   0 0 0 0
G01575           N01972           N01974           20.000     0.0130   0 0 0 0
G01576           N01973           N00681           184.391    0.0130   0 0 0 0
G01577           N01974           N01975           170.880    0.0130   0 0 0 0
G01578           N01975           N00681           20.000     0.0130   0 0 0 0
G01579           N01977           N02044           44.721     0.0130   0 0 0 0
G01580           N01982           N00515           60.000     0.0130   0 0 0 0
G01581           N01984           N02044           28.284     0.0130   0 0 0 0
G01582           N01987           N01988           400.000    0.0130   0 0 0 0
G01583           N01988           N02003           160.000    0.0130   0 0 0 0
G01584           N01989           N01988           44.721     0.0130   0 0 0 0
G01585           N01991           N01987           20.000     0.0130   0 0 0 0
G01586           N01992           N01988           63.246     0.0130   0 0 0 0
G01587           N01993           N02002           82.462     0.0130   0 0 0 0
G01588           N01994           N01993           44.721     0.0130   0 0 0 0
G01589           N01995           N01998           80.000     0.0130   0 0 0 0
G01590           N01996           N00678           140.000    0.0130   0 0 0 0
G01591           N01997           N01968           220.907    0.0130   0 0 0 0
G01592           N01998           N01999           126.491    0.0130   0 0 0 0
G01593           N01999           N01968           120.000    0.0130   0 0 0 0
G01594           N02000           N01993           223.607    0.0130   0 0 0 0
G01595           N02001           N02000           20.000     0.0130   0 0 0 0
G01596           N02003           N02001           28.284     0.0130   0 0 0 0
G01597           N02004           N02020           44.721     0.0130   0 0 0 0
G01598           N02005           N01987           160.000    0.0130   0 0 0 0
G01599           N02006           N01071           63.246     0.0130   0 0 0 0
G01600           N02007           N01824           84.853     0.0130   0 0 0 0
G01601           N02008           N01991           141.421    0.0130   0 0 0 0
G01602           N02009           N02008           181.108    0.0130   0 0 0 0
G01603           N02010           N01987           121.655    0.0130   0 0 0 0
G01604           N02013           N01280           141.421    0.0130   0 0 0 0
G01605           N02014           N02007           120.000    0.0130   0 0 0 0
G01606           N02015           N01580           63.246     0.0130   0 0 0 0
G01607           N02016           N01991           121.655    0.0130   0 0 0 0
G01608           N02017           N02022           56.569     0.0130   0 0 0 0
G01609           N02018           N02019           197.990    0.0130   0 0 0 0
G01610           N02019           N01009           40.000     0.0130   0 0 0 0
G01611           N02020           N02017           160.000    0.0130   0 0 0 0
G01612           N02021           N02020           82.462     0.0130   0 0 0 0
G01613           N02022           N01897           82.462     0.0130   0 0 0 0
G01614           N02023           N00551           28.284     0.0130   0 0 0 0
G01615           N02024           N00487           89.443     0.0130   0 0 0 0
G01616           N02025           N02026           134.164    0.0130   0 0 0 0
G01617           N02026           N02027           200.998    0.0130   0 0 0 0
G01618           N02027           N01580           72.111     0.0130   0 0 0 0
G01619           N02028           N02029           72.111     0.0130   0 0 0 0
G01620           N02029           N02026           116.619    0.0130   0 0 0 0
G01621           N02032           N01259           212.603    0.0130   0 0 0 0
G01622           N02033           N02034           56.569     0.0130   0 0 0 0
G01623           N02034           N02028           84.853     0.0130   0 0 0 0
G01624           N02035           N01580           89.443     0.0130   0 0 0 0
G01625           N02036           N02026           63.246     0.0130   0 0 0 0
G01626           N02044           N02048           144.222    0.0130   0 0 0 0
G01627           N02046           N02020           44.721     0.0130   0 0 0 0
G01628           N02047           N01580           60.000     0.0130   0 0 0 0
G01629           N02048           N01265           100.000    0.0130   0 0 0 0
G01630           N02049           N00684           84.853     0.0130   0 0 0 0
G01631           N02050           N02049           170.880    0.0130   0 0 0 0
G01632           N02052           N01936           63.246     0.0130   0 0 0 0
G01633           N02053           N02054           252.982    0.0130   0 0 0 0
G01634           N02054           N00681           28.284     0.0130   0 0 0 0
G01635           N02055           N00681           20.000     0.0130   0 0 0 0
G01636           N02056           N02787           56.569     0.0130   0 0 0 0
G01637           N02057           N02058           164.924    0.0130   0 0 0 0
G01638           N02058           N02059           188.680    0.0130   0 0 0 0
G01639           N02059           N02060           367.151    0.0130   0 0 0 0
G01640           N02060           N02066           100.000    0.0130   0 0 0 0
G01641           N02061           N02060           250.599    0.0130   0 0 0 0
G01642           N02062           N02061           250.599    0.0130   0 0 0 0
G01643           N02063           N02062           82.462     0.0130   0 0 0 0
G01644           N02065           N02070           72.111     0.0130   0 0 0 0
G01645           N02066           N02065           156.205    0.0130   0 0 0 0
G01646           N02067           N02066           72.111     0.0130   0 0 0 0
G01647           N02068           N02066           84.853     0.0130   0 0 0 0
G01648           N02069           N02070           128.062    0.0130   0 0 0 0
G01649           N02070           N02064           82.462     0.0130   0 0 0 0
G01650           N02071           N02057           100.000    0.0130   0 0 0 0
G01651           N02072           N02647           60.000     0.0130   0 0 0 0
G01652           N02073           N02072           161.245    0.0130   0 0 0 0
G01653           N02074           N01042           63.246     0.0130   0 0 0 0
G01654           N02075           N02077           82.462     0.0130   0 0 0 0
G01655           N02076           N02077           44.721     0.0130   0 0 0 0
G01656           N02077           N02071           161.245    0.0130   0 0 0 0
G01657           N02078           N02077           56.569     0.0130   0 0 0 0
G01658           N02079           N02080           164.924    0.0130   0 0 0 0
G01659           N02080           N02673           40.000     0.0130   0 0 0 0
G01660           N02081           N02082           181.108    0.0130   0 0 0 0
G01661           N02082           N02083           120.000    0.0130   0 0 0 0
G01662           N02083           N01454           72.111     0.0130   0 0 0 0
G01663           N02084           N00879           63.246     0.0130   0 0 0 0
G01664           N02085           N01454           84.853     0.0130   0 0 0 0
G01665           N02086           N01454           44.721     0.0130   0 0 0 0
G01666           N02087           N01454           60.000     0.0130   0 0 0 0
G01667           N02088           N01454           84.853     0.0130   0 0 0 0
G01668           N02090           N02088           161.245    0.0130   0 0 0 0
G01669           N02091           N02092           220.907    0.0130   0 0 0 0
G01670           N02092           N02094           100.000    0.0130   0 0 0 0
G01671           N02093           N02095           63.246     0.0130   0 0 0 0
G01672           N02094           N00615           121.655    0.0130   0 0 0 0
G01673           N02095           N02094           60.000     0.0130   0 0 0 0
G01674           N02096           N02091           100.000    0.0130   0 0 0 0
G01675           N02097           N02106           100.000    0.0130   0 0 0 0
G01676           N02098           N02097           240.000    0.0130   0 0 0 0
G01677           N02099           N02098           40.000     0.0130   0 0 0 0
G01678           N02100           N02101           40.000     0.0130   0 0 0 0
G01679           N02101           N02103           220.000    0.0130   0 0 0 0
G01680           N02102           N02106           63.246     0.0130   0 0 0 0
G01681           N02103           N02107           100.000    0.0130   0 0 0 0
G01682           N02104           N02107           56.569     0.0130   0 0 0 0
G01683           N02105           N02091           100.000    0.0130   0 0 0 0
G01684           N02106           N02091           40.000     0.0130   0 0 0 0
G01685           N02107           N02091           63.246     0.0130   0 0 0 0
G01686           N02108           N02091           56.569     0.0130   0 0 0 0
G01687           N02109           N00438           140.000    0.0130   0 0 0 0
G01688           N02110           N02109           40.000     0.0130   0 0 0 0
G01689           N02111           N01668           56.569     0.0130   0 0 0 0
G01690           N02112           N02111           160.000    0.0130   0 0 0 0
G01691           N02113           N01666           56.569     0.0130   0 0 0 0
G01692           N02114           N01288           28.284     0.0130   0 0 0 0
G01693           N02115           N02116           121.655    0.0130   0 0 0 0
G01694           N02116           N02117           461.736    0.0130   0 0 0 0
G01695           N02117           N02119           44.721     0.0130   0 0 0 0
G01696           N02118           N02134           44.721     0.0130   0 0 0 0
G01697           N02119           N02120           100.000    0.0130   0 0 0 0
G01698           N02120           N02121           400.500    0.0130   0 0 0 0
G01699           N02121           N02725           40.000     0.0130   0 0 0 0
G01700           N02122           N02123           180.000    0.0130   0 0 0 0
G01701           N02123           N02128           82.462     0.0130   0 0 0 0
G01702           N02124           N02120           100.000    0.0130   0 0 0 0
G01703           N02125           N02124           260.000    0.0130   0 0 0 0
G01704           N02126           N02124           220.907    0.0130   0 0 0 0
G01705           N02127           N02120           63.246     0.0130   0 0 0 0
G01706           N02128           N02120           60.000     0.0130   0 0 0 0
G01707           N02129           N02115           63.246     0.0130   0 0 0 0
G01708           N02130           N02132           40.000     0.0130   0 0 0 0
G01709           N02131           N00026           40.000     0.0130   0 0 0 0
G01710           N02132           N02115           100.000    0.0130   0 0 0 0
G01711           N02133           N02120           82.462     0.0130   0 0 0 0
G01712           N02134           N02125           100.000    0.0130   0 0 0 0
G01713           N02135           N02116           80.000     0.0130   0 0 0 0
G01714           N02136           N02116           63.246     0.0130   0 0 0 0
G01715           N02137           N02126           63.246     0.0130   0 0 0 0
G01716           N02138           N01209           28.284     0.0130   0 0 0 0
G01717           N02139           N02140           181.108    0.0130   0 0 0 0
G01718           N02140           N02125           40.000     0.0130   0 0 0 0
G01719           N02141           N02129           56.569     0.0130   0 0 0 0
G01720           N02142           N00955           160.000    0.0130   0 0 0 0
G01721           N02143           N01579           40.000     0.0130   0 0 0 0
G01722           N02144           N00026           63.246     0.0130   0 0 0 0
G01723           N02145           N00198           63.246     0.0130   0 0 0 0
G01724           N02146           N02145           134.164    0.0130   0 0 0 0
G01725           N02147           N00198           60.000     0.0130   0 0 0 0
G01726           N02148           N00198           100.000    0.0130   0 0 0 0
G01727           N02149           N01949           82.462     0.0130   0 0 0 0
G01728           N02156           N00537           89.443     0.0130   0 0 0 0
G01729           N02157           N02169           60.000     0.0130   0 0 0 0
G01730           N02158           N02129           100.000    0.0130   0 0 0 0
G01731           N02159           N02160           120.000    0.0130   0 0 0 0
G01732           N02160           N02161           200.000    0.0130   0 0 0 0
G01733           N02161           N02157           203.961    0.0130   0 0 0 0
G01734           N02162           N02164           56.569     0.0130   0 0 0 0
G01735           N02163           N02164           89.443     0.0130   0 0 0 0
G01736           N02164           N00530           72.111     0.0130   0 0 0 0
G01737           N02166           N02167           100.000    0.0130   0 0 0 0
G01738           N02167           N02164           100.000    0.0130   0 0 0 0
G01739           N02168           N02163           20.000     0.0130   0 0 0 0
G01740           N02169           N02162           56.569     0.0130   0 0 0 0
G01741           N02170           N00530           28.284     0.0130   0 0 0 0
G01742           N02171           N00745           63.246     0.0130   0 0 0 0
G01743           N02172           N02736           60.000     0.0130   0 0 0 0
G01744           N02173           N01693           181.108    0.0130   0 0 0 0
G01745           N02174           N00959           80.000     0.0130   0 0 0 0
G01746           N02175           N00660           40.000     0.0130   0 0 0 0
G01747           N02176           N00957           60.000     0.0130   0 0 0 0
G01748           N02177           N00959           60.000     0.0130   0 0 0 0
G01749           N02178           N02181           60.000     0.0130   0 0 0 0
G01750           N02179           N02178           84.853     0.0130   0 0 0 0
G01751           N02182           N01387           89.443     0.0130   0 0 0 0
G01752           N02187           N02188           161.245    0.0130   0 0 0 0
G01753           N02188           N02191           200.000    0.0130   0 0 0 0
G01754           N02191           N02383           63.246     0.0130   0 0 0 0
G01755           N02192           N02188           172.047    0.0130   0 0 0 0
G01756           N02196           N02199           28.284     0.0130   0 0 0 0
G01757           N02199           N01481           89.443     0.0130   0 0 0 0
G01758           N02204           N02199           84.853     0.0130   0 0 0 0
G01759           N02208           N01030           82.462     0.0130   0 0 0 0
G01760           N02209           N00286           56.569     0.0130   0 0 0 0
G01761           N02210           N02701           28.284     0.0130   0 0 0 0
G01762           N02211           N02703           63.246     0.0130   0 0 0 0
G01763           N02212           N01031           82.462     0.0130   0 0 0 0
G01764           N02213           N00337           63.246     0.0130   0 0 0 0
G01765           N02214           N02236           152.315    0.0130   0 0 0 0
G01766           N02215           N02214           170.880    0.0130   0 0 0 0
G01767           N02216           N02215           113.137    0.0130   0 0 0 0
G01768           N02219           N02409           89.443     0.0130   0 0 0 0
G01769           N02231           N02241           20.000     0.0130   0 0 0 0
G01770           N02232           N02239           44.721     0.0130   0 0 0 0
G01771           N02236           N02239           63.246     0.0130   0 0 0 0
G01772           N02237           N02239           72.111     0.0130   0 0 0 0
G01773           N02238           N02239           44.721     0.0130   0 0 0 0
G01774           N02239           N02240           134.164    0.0130   0 0 0 0
G01775           N02240           N01063           20.000     0.0130   0 0 0 0
G01776           N02241           N02239           40.000     0.0130   0 0 0 0
G01777           N02242           N02245           28.284     0.0130   0 0 0 0
G01778           N02243           N02242           234.094    0.0130   0 0 0 0
G01779           N02244           N02243           28.284     0.0130   0 0 0 0
G01780           N02245           N02253           170.880    0.0130   0 0 0 0
G01781           N02246           N02245           161.245    0.0130   0 0 0 0
G01782           N02247           N02251           20.000     0.0130   0 0 0 0
G01783           N02248           N02251           170.880    0.0130   0 0 0 0
G01784           N02249           N02258           20.000     0.0130   0 0 0 0
G01785           N02250           N02251           161.245    0.0130   0 0 0 0
G01786           N02251           N02252           181.108    0.0130   0 0 0 0
G01787           N02252           N02246           101.980    0.0130   0 0 0 0
G01788           N02254           N02259           56.569     0.0130   0 0 0 0
G01789           N02256           N02251           28.284     0.0130   0 0 0 0
G01790           N02258           N02259           181.108    0.0130   0 0 0 0
G01791           N02259           N02262           44.721     0.0130   0 0 0 0
G01792           N02260           N02261           141.421    0.0130   0 0 0 0
G01793           N02261           N02258           80.000     0.0130   0 0 0 0
G01794           N02262           N02263           286.356    0.0130   0 0 0 0
G01795           N02263           N02242           20.000     0.0130   0 0 0 0
G01796           N02264           N02260           80.000     0.0130   0 0 0 0
G01797           N02266           N02271           161.245    0.0130   0 0 0 0
G01798           N02267           N02830           63.246     0.0130   0 0 0 0
G01799           N02268           N02266           300.000    0.0130   0 0 0 0
G01800           N02269           N02270           107.703    0.0130   0 0 0 0
G01801           N02270           N02303           100.000    0.0130   0 0 0 0
G01802           N02271           N02830           44.721     0.0130   0 0 0 0
G01803           N02272           N02830           82.462     0.0130   0 0 0 0
G01804           N02273           N00946           101.980    0.0130   0 0 0 0
G01805           N02274           N02830           82.462     0.0130   0 0 0 0
G01806           N02275           N02566           140.000    0.0130   0 0 0 0
G01807           N02276           N02275           160.000    0.0130   0 0 0 0
G01808           N02277           N00852           89.443     0.0130   0 0 0 0
G01809           N02278           N00852           72.111     0.0130   0 0 0 0
G01810           N02279           N00852           89.443     0.0130   0 0 0 0
G01811           N02280           N02566           100.000    0.0130   0 0 0 0
G01812           N02281           N02289           80.000     0.0130   0 0 0 0
G01813           N02282           N02283           208.806    0.0130   0 0 0 0
G01814           N02283           N02284           134.164    0.0130   0 0 0 0
G01815           N02284           N00852           80.000     0.0130   0 0 0 0
G01816           N02285           N02282           89.443     0.0130   0 0 0 0
G01817           N02286           N02285           89.443     0.0130   0 0 0 0
G01818           N02287           N02282           28.284     0.0130   0 0 0 0
G01819           N02288           N02297           20.000     0.0130   0 0 0 0
G01820           N02290           N02289           72.111     0.0130   0 0 0 0
G01821           N02291           N01504           84.853     0.0130   0 0 0 0
G01822           N02292           N01214           160.000    0.0130   0 0 0 0
G01823           N02293           N01215           100.000    0.0130   0 0 0 0
G01824           N02294           N02293           141.421    0.0130   0 0 0 0
G01825           N02296           N02297           160.000    0.0130   0 0 0 0
G01826           N02297           N02289           40.000     0.0130   0 0 0 0
G01827           N02298           N02281           120.000    0.0130   0 0 0 0
G01828           N02299           N02298           260.000    0.0130   0 0 0 0
G01829           N02300           N02289           44.721     0.0130   0 0 0 0
G01830           N02301           N02300           180.000    0.0130   0 0 0 0
G01831           N02302           N02303           80.000     0.0130   0 0 0 0
G01832           N02303           N02296           82.462     0.0130   0 0 0 0
G01833           N02304           N02308           80.000     0.0130   0 0 0 0
G01834           N02305           N02307           116.619    0.0130   0 0 0 0
G01835           N02306           N02308           60.000     0.0130   0 0 0 0
G01836           N02307           N02309           116.619    0.0130   0 0 0 0
G01837           N02308           N02305           63.246     0.0130   0 0 0 0
G01838           N02309           N01213           141.421    0.0130   0 0 0 0
G01839           N02310           N02302           28.284     0.0130   0 0 0 0
G01840           N02311           N00383           180.000    0.0130   0 0 0 0
G01841           N02312           N00382           72.111     0.0130   0 0 0 0
G01842           N02313           N01490           89.443     0.0130   0 0 0 0
G01843           N02314           N00070           44.721     0.0130   0 0 0 0
G01844           N02315           N01300           72.111     0.0130   0 0 0 0
G01845           N02316           N02315           164.924    0.0130   0 0 0 0
G01846           N02317           N02312           72.111     0.0130   0 0 0 0
G01847           N02318           N02319           180.000    0.0130   0 0 0 0
G01848           N02319           N00014           28.284     0.0130   0 0 0 0
G01849           N02325           N01383           44.721     0.0130   0 0 0 0
G01850           N02326           N00084           40.000     0.0130   0 0 0 0
G01851           N02327           N02501           180.000    0.0130   0 0 0 0
G01852           N02328           N02329           161.245    0.0130   0 0 0 0
G01853           N02329           N02330           160.000    0.0130   0 0 0 0
G01854           N02330           N00404           40.000     0.0130   0 0 0 0
G01855           N02331           N02332           144.222    0.0130   0 0 0 0
G01856           N02332           N02327           208.806    0.0130   0 0 0 0
G01857           N02345           N00405           140.000    0.0130   0 0 0 0
G01858           N02351           N02352           282.843    0.0130   0 0 0 0
G01859           N02352           N00400           60.000     0.0130   0 0 0 0
G01860           N02354           N00400           63.246     0.0130   0 0 0 0
G01861           N02355           N02351           82.462     0.0130   0 0 0 0
G01862           N02356           N02355           220.907    0.0130   0 0 0 0
G01863           N02364           N02365           164.924    0.0130   0 0 0 0
G01864           N02365           N01404           20.000     0.0130   0 0 0 0
G01865           N02366           N02367           184.391    0.0130   0 0 0 0
G01866           N02368           N02366           63.246     0.0130   0 0 0 0
G01867           N02369           N02367           44.721     0.0130   0 0 0 0
G01868           N02370           N02369           100.000    0.0130   0 0 0 0
G01869           N02371           N01404           60.000     0.0130   0 0 0 0
G01870           N02372           N02364           200.998    0.0130   0 0 0 0
G01871           N02373           N02366           56.569     0.0130   0 0 0 0
G01872           N02374           N01080           60.000     0.0130   0 0 0 0
G01873           N02375           N02374           160.000    0.0130   0 0 0 0
G01874           N02376           N02366           28.284     0.0130   0 0 0 0
G01875           N02377           N02367           40.000     0.0130   0 0 0 0
G01876           N02378           N02370           40.000     0.0130   0 0 0 0
G01877           N02379           N02366           40.000     0.0130   0 0 0 0
G01878           N02381           N02383           56.569     0.0130   0 0 0 0
G01879           N02382           N02486           89.443     0.0130   0 0 0 0
G01880           N02383           N01628           357.771    0.0130   0 0 0 0
G01881           N02384           N01634           56.569     0.0130   0 0 0 0
G01882           N02385           N02384           241.661    0.0130   0 0 0 0
G01883           N02388           N02605           82.462     0.0130   0 0 0 0
G01884           N02389           N01481           89.443     0.0130   0 0 0 0
G01885           N02390           N01480           44.721     0.0130   0 0 0 0
G01886           N02391           N02390           40.000     0.0130   0 0 0 0
G01887           N02392           N01480           63.246     0.0130   0 0 0 0
G01888           N02406           N02781           63.246     0.0130   0 0 0 0
G01889           N02407           N01093           40.000     0.0130   0 0 0 0
G01890           N02408           N02410           181.108    0.0130   0 0 0 0
G01891           N02409           N02831           161.245    0.0130   0 0 0 0
G01892           N02410           N02721           100.000    0.0130   0 0 0 0
G01893           N02411           N02413           40.000     0.0130   0 0 0 0
G01894           N02412           N02411           100.000    0.0130   0 0 0 0
G01895           N02413           N02414           282.843    0.0130   0 0 0 0
G01896           N02414           N02415           82.462     0.0130   0 0 0 0
G01897           N02415           N00669           56.569     0.0130   0 0 0 0
G01898           N02416           N00929           89.443     0.0130   0 0 0 0
G01899           N02417           N00929           82.462     0.0130   0 0 0 0
G01900           N02418           N00929           28.284     0.0130   0 0 0 0
G01901           N02424           N01903           44.721     0.0130   0 0 0 0
G01902           N02425           N01935           220.907    0.0130   0 0 0 0
G01903           N02426           N02427           82.462     0.0130   0 0 0 0
G01904           N02427           N00090           40.000     0.0130   0 0 0 0
G01905           N02428           N02802           72.111     0.0130   0 0 0 0
G01906           N02429           N02056           56.569     0.0130   0 0 0 0
G01907           N02430           N02029           100.000    0.0130   0 0 0 0
G01908           N02432           N02433           121.655    0.0130   0 0 0 0
G01909           N02433           N00648           82.462     0.0130   0 0 0 0
G01910           N02434           N00634           82.462     0.0130   0 0 0 0
G01911           N02435           N00090           89.443     0.0130   0 0 0 0
G01912           N02436           N01312           82.462     0.0130   0 0 0 0
G01913           N02437           N01312           60.000     0.0130   0 0 0 0
G01914           N02438           N02437           240.832    0.0130   0 0 0 0
G01915           N02439           N02440           141.421    0.0130   0 0 0 0
G01916           N02440           N00724           72.111     0.0130   0 0 0 0
G01917           N02441           N02704           60.000     0.0130   0 0 0 0
G01918           N02442           N00345           60.000     0.0130   0 0 0 0
G01919           N02443           N02311           28.284     0.0130   0 0 0 0
G01920           N02444           N02620           60.000     0.0130   0 0 0 0
G01921           N02445           N02819           40.000     0.0130   0 0 0 0
G01922           N02446           N02769           40.000     0.0130   0 0 0 0
G01923           N02447           N02448           160.000    0.0130   0 0 0 0
G01924           N02448           N02449           220.000    0.0130   0 0 0 0
G01925           N02449           N02450           100.000    0.0130   0 0 0 0
G01926           N02450           N02725           63.246     0.0130   0 0 0 0
G01927           N02454           N01709           100.000    0.0130   0 0 0 0
G01928           N02457           N00863           56.569     0.0130   0 0 0 0
G01929           N02458           N02292           160.000    0.0130   0 0 0 0
G01930           N02461           N02465           152.315    0.0130   0 0 0 0
G01931           N02462           N02463           300.000    0.0130   0 0 0 0
G01932           N02463           N01421           84.853     0.0130   0 0 0 0
G01933           N02464           N02462           72.111     0.0130   0 0 0 0
G01934           N02465           N00542           40.000     0.0130   0 0 0 0
G01935           N02466           N02464           80.000     0.0130   0 0 0 0
G01936           N02467           N02469           44.721     0.0130   0 0 0 0
G01937           N02468           N02469           80.000     0.0130   0 0 0 0
G01938           N02469           N02462           100.000    0.0130   0 0 0 0
G01939           N02470           N02464           60.000     0.0130   0 0 0 0
G01940           N02471           N02115           89.443     0.0130   0 0 0 0
G01941           N02472           N02471           28.284     0.0130   0 0 0 0
G01942           N02473           N01659           84.853     0.0130   0 0 0 0
G01943           N02474           N00182           349.285    0.0130   0 0 0 0
G01944           N02475           N01483           82.462     0.0130   0 0 0 0
G01945           N02476           N01863           141.421    0.0130   0 0 0 0
G01946           N02483           N02716           63.246     0.0130   0 0 0 0
G01947           N02484           N01273           63.246     0.0130   0 0 0 0
G01948           N02485           N01659           89.443     0.0130   0 0 0 0
G01949           N02486           N02485           200.998    0.0130   0 0 0 0
G01950           N02487           N02484           89.443     0.0130   0 0 0 0
G01951           N02488           N02376           89.443     0.0130   0 0 0 0
G01952           N02489           N01080           40.000     0.0130   0 0 0 0
G01953           N02490           N02489           60.000     0.0130   0 0 0 0
G01954           N02491           N00236           184.391    0.0130   0 0 0 0
G01955           N02493           N02494           172.047    0.0130   0 0 0 0
G01956           N02494           N00901           89.443     0.0130   0 0 0 0
G01957           N02495           N00233           80.000     0.0130   0 0 0 0
G01958           N02496           N02495           180.000    0.0130   0 0 0 0
G01959           N02497           N02498           160.000    0.0130   0 0 0 0
G01960           N02498           N01866           44.721     0.0130   0 0 0 0
G01961           N02499           N00338           82.462     0.0130   0 0 0 0
G01962           N02500           N02327           141.421    0.0130   0 0 0 0
G01963           N02501           N00084           44.721     0.0130   0 0 0 0
G01964           N02502           N00457           72.111     0.0130   0 0 0 0
G01965           N02503           N02283           100.000    0.0130   0 0 0 0
G01966           N02504           N02282           82.462     0.0130   0 0 0 0
G01967           N02505           N01000           28.284     0.0130   0 0 0 0
G01968           N02506           N00575           44.721     0.0130   0 0 0 0
G01969           N02507           N00590           40.000     0.0130   0 0 0 0
G01970           N02508           N01565           252.982    0.0130   0 0 0 0
G01971           N02509           N01535           63.246     0.0130   0 0 0 0
G01972           N02510           N00591           40.000     0.0130   0 0 0 0
G01973           N02511           N01565           40.000     0.0130   0 0 0 0
G01974           N02512           N00590           44.721     0.0130   0 0 0 0
G01975           N02513           N02514           40.000     0.0130   0 0 0 0
G01976           N02514           N02515           220.907    0.0130   0 0 0 0
G01977           N02515           N02260           44.721     0.0130   0 0 0 0
G01978           N02517           N02145           63.246     0.0130   0 0 0 0
G01979           N02518           N02708           100.000    0.0130   0 0 0 0
G01980           N02519           N02785           89.443     0.0130   0 0 0 0
G01981           N02520           N00163           82.462     0.0130   0 0 0 0
G01982           N02521           N01306           100.000    0.0130   0 0 0 0
G01983           N02522           N01305           63.246     0.0130   0 0 0 0
G01984           N02523           N00619           63.246     0.0130   0 0 0 0
G01985           N02524           N01307           28.284     0.0130   0 0 0 0
G01986           N02526           N01602           44.721     0.0130   0 0 0 0
G01987           N02527           N00604           72.111     0.0130   0 0 0 0
G01988           N02528           N00604           100.000    0.0130   0 0 0 0
G01989           N02529           N02527           72.111     0.0130   0 0 0 0
G01990           N02530           N02529           56.569     0.0130   0 0 0 0
G01991           N02531           N02535           60.000     0.0130   0 0 0 0
G01992           N02532           N02535           40.000     0.0130   0 0 0 0
G01993           N02533           N00779           82.462     0.0130   0 0 0 0
G01994           N02534           N02533           28.284     0.0130   0 0 0 0
G01995           N02535           N02537           145.602    0.0130   0 0 0 0
G01996           N02536           N02535           56.569     0.0130   0 0 0 0
G01997           N02537           N02533           161.245    0.0130   0 0 0 0
G01998           N02538           N02535           56.569     0.0130   0 0 0 0
G01999           N02539           N02540           128.062    0.0130   0 0 0 0
G02000           N02540           N00369           89.443     0.0130   0 0 0 0
G02001           N02541           N00832           156.205    0.0130   0 0 0 0
G02002           N02542           N02555           40.000     0.0130   0 0 0 0
G02003           N02543           N02548           223.607    0.0130   0 0 0 0
G02004           N02544           N02543           140.000    0.0130   0 0 0 0
G02005           N02545           N02543           181.108    0.0130   0 0 0 0
G02006           N02546           N00076           100.000    0.0130   0 0 0 0
G02007           N02547           N02568           82.462     0.0130   0 0 0 0
G02008           N02548           N02549           40.000     0.0130   0 0 0 0
G02009           N02549           N02542           82.462     0.0130   0 0 0 0
G02010           N02550           N02552           28.284     0.0130   0 0 0 0
G02011           N02551           N02268           80.000     0.0130   0 0 0 0
G02012           N02552           N02268           82.462     0.0130   0 0 0 0
G02013           N02553           N02552           40.000     0.0130   0 0 0 0
G02014           N02555           N02268           89.443     0.0130   0 0 0 0
G02015           N02556           N00774           200.000    0.0130   0 0 0 0
G02016           N02557           N02556           220.907    0.0130   0 0 0 0
G02017           N02558           N01392           100.000    0.0130   0 0 0 0
G02018           N02563           N00619           80.000     0.0130   0 0 0 0
G02019           N02564           N00351           63.246     0.0130   0 0 0 0
G02020           N02565           N00364           80.000     0.0130   0 0 0 0
G02021           N02566           N02567           170.880    0.0130   0 0 0 0
G02022           N02567           N02299           72.111     0.0130   0 0 0 0
G02023           N02568           N02277           100.000    0.0130   0 0 0 0
G02024           N02569           N02298           40.000     0.0130   0 0 0 0
G02025           N02570           N02286           141.421    0.0130   0 0 0 0
G02026           N02575           N02605           80.000     0.0130   0 0 0 0
G02027           N02576           N02388           205.913    0.0130   0 0 0 0
G02028           N02582           N02730           100.000    0.0130   0 0 0 0
G02029           N02583           N02798           44.721     0.0130   0 0 0 0
G02030           N02584           N02739           63.246     0.0130   0 0 0 0
G02031           N02585           N02722           40.000     0.0130   0 0 0 0
G02032           N02586           N02723           100.000    0.0130   0 0 0 0
G02033           N02587           N00769           121.655    0.0130   0 0 0 0
G02034           N02588           N02590           40.000     0.0130   0 0 0 0
G02035           N02589           N02590           200.000    0.0130   0 0 0 0
G02036           N02590           N02507           80.000     0.0130   0 0 0 0
G02037           N02594           N02595           63.246     0.0130   0 0 0 0
G02038           N02595           N00911           82.462     0.0130   0 0 0 0
G02039           N02596           N00911           82.462     0.0130   0 0 0 0
G02040           N02599           N00926           56.569     0.0130   0 0 0 0
G02041           N02603           N02311           60.000     0.0130   0 0 0 0
G02042           N02604           N01521           220.907    0.0130   0 0 0 0
G02043           N02605           N02611           100.000    0.0130   0 0 0 0
G02044           N02606           N01476           44.721     0.0130   0 0 0 0
G02045           N02607           N01481           100.000    0.0130   0 0 0 0
G02046           N02609           N01481           63.246     0.0130   0 0 0 0
G02047           N02610           N01476           60.000     0.0130   0 0 0 0
G02048           N02611           N02610           332.866    0.0130   0 0 0 0
G02049           N02612           N01834           82.462     0.0130   0 0 0 0
G02050           N02613           N01834           89.443     0.0130   0 0 0 0
G02051           N02614           N01032           44.721     0.0130   0 0 0 0
G02052           N02615           N02614           247.386    0.0130   0 0 0 0
G02053           N02616           N01625           44.721     0.0130   0 0 0 0
G02054           N02617           N02824           80.000     0.0130   0 0 0 0
G02055           N02618           N00403           72.111     0.0130   0 0 0 0
G02056           N02619           N01032           89.443     0.0130   0 0 0 0
G02057           N02620           N01749           100.000    0.0130   0 0 0 0
G02058           N02622           N02623           82.462     0.0130   0 0 0 0
G02059           N02623           N00172           161.245    0.0130   0 0 0 0
G02060           N02625           N02626           240.000    0.0130   0 0 0 0
G02061           N02626           N00811           56.569     0.0130   0 0 0 0
G02062           N02627           N00809           44.721     0.0130   0 0 0 0
G02063           N02628           N00812           72.111     0.0130   0 0 0 0
G02064           N02629           N00809           82.462     0.0130   0 0 0 0
G02065           N02630           N00808           100.000    0.0130   0 0 0 0
G02066           N02631           N02632           340.588    0.0130   0 0 0 0
G02067           N02632           N02633           101.980    0.0130   0 0 0 0
G02068           N02633           N02634           101.980    0.0130   0 0 0 0
G02069           N02634           N02731           89.443     0.0130   0 0 0 0
G02070           N02635           N02632           40.000     0.0130   0 0 0 0
G02071           N02636           N02725           260.768    0.0130   0 0 0 0
G02072           N02637           N02450           40.000     0.0130   0 0 0 0
G02073           N02638           N02121           44.721     0.0130   0 0 0 0
G02074           N02639           N02057           84.853     0.0130   0 0 0 0
G02075           N02640           N02664           20.000     0.0130   0 0 0 0
G02076           N02641           N00324           28.284     0.0130   0 0 0 0
G02077           N02642           N00323           189.737    0.0130   0 0 0 0
G02078           N02643           N00684           89.443     0.0130   0 0 0 0
G02079           N02644           N02643           145.602    0.0130   0 0 0 0
G02080           N02645           N02647           63.246     0.0130   0 0 0 0
G02081           N02646           N00616           100.000    0.0130   0 0 0 0
G02082           N02647           N02057           60.000     0.0130   0 0 0 0
G02083           N02648           N02639           121.655    0.0130   0 0 0 0
G02084           N02649           N02652           82.462     0.0130   0 0 0 0
G02085           N02650           N02648           63.246     0.0130   0 0 0 0
G02086           N02651           N00684           100.000    0.0130   0 0 0 0
G02087           N02652           N00684           60.000     0.0130   0 0 0 0
G02088           N02653           N01266           100.000    0.0130   0 0 0 0
G02089           N02654           N01275           82.462     0.0130   0 0 0 0
G02090           N02655           N02650           72.111     0.0130   0 0 0 0
G02091           N02656           N02647           63.246     0.0130   0 0 0 0
G02092           N02657           N02057           80.000     0.0130   0 0 0 0
G02093           N02658           N02662           20.000     0.0130   0 0 0 0
G02094           N02659           N02658           220.000    0.0130   0 0 0 0
G02095           N02660           N02073           40.000     0.0130   0 0 0 0
G02096           N02661           N02660           184.391    0.0130   0 0 0 0
G02097           N02662           N02676           145.602    0.0130   0 0 0 0
G02098           N02663           N02073           44.721     0.0130   0 0 0 0
G02099           N02664           N02665           260.768    0.0130   0 0 0 0
G02100           N02665           N02656           181.108    0.0130   0 0 0 0
G02101           N02666           N00204           72.111     0.0130   0 0 0 0
G02102           N02667           N02664           44.721     0.0130   0 0 0 0
G02103           N02668           N02661           82.462     0.0130   0 0 0 0
G02104           N02669           N02677           200.000    0.0130   0 0 0 0
G02105           N02670           N02661           20.000     0.0130   0 0 0 0
G02106           N02671           N01045           44.721     0.0130   0 0 0 0
G02107           N02672           N01380           63.246     0.0130   0 0 0 0
G02108           N02673           N02672           63.246     0.0130   0 0 0 0
G02109           N02674           N02672           44.721     0.0130   0 0 0 0
G02110           N02675           N01460           89.443     0.0130   0 0 0 0
G02111           N02676           N02077           82.462     0.0130   0 0 0 0
G02112           N02677           N02662           44.721     0.0130   0 0 0 0
G02113           N02678           N02073           44.721     0.0130   0 0 0 0
G02114           N02679           N02077           40.000     0.0130   0 0 0 0
G02115           N02680           N02077           44.721     0.0130   0 0 0 0
G02116           N02681           N02680           28.284     0.0130   0 0 0 0
G02117           N02682           N02078           126.491    0.0130   0 0 0 0
G02118           N02685           N01042           44.721     0.0130   0 0 0 0
G02119           N02686           N02690           100.000    0.0130   0 0 0 0
G02120           N02687           N01042           60.000     0.0130   0 0 0 0
G02121           N02688           N00696           107.703    0.0130   0 0 0 0
G02122           N02689           N01047           44.721     0.0130   0 0 0 0
G02123           N02690           N02689           188.680    0.0130   0 0 0 0
G02124           N02692           N02690           72.111     0.0130   0 0 0 0
G02125           N02693           N02690           100.000    0.0130   0 0 0 0
G02126           N02694           N02537           181.108    0.0130   0 0 0 0
G02127           N02695           N02537           161.245    0.0130   0 0 0 0
G02128           N02696           N00694           100.000    0.0130   0 0 0 0
G02129           N02697           N02698           181.108    0.0130   0 0 0 0
G02130           N02698           N01405           40.000     0.0130   0 0 0 0
G02131           N02699           N02605           44.721     0.0130   0 0 0 0
G02132           N02700           N01547           82.462     0.0130   0 0 0 0
G02133           N02701           N02700           480.416    0.0130   0 0 0 0
G02134           N02702           N02701           28.284     0.0130   0 0 0 0
G02135           N02703           N02704           160.000    0.0130   0 0 0 0
G02136           N02704           N02714           140.000    0.0130   0 0 0 0
G02137           N02705           N02484           101.980    0.0130   0 0 0 0
G02138           N02706           N01272           80.000     0.0130   0 0 0 0
G02139           N02707           N02705           82.462     0.0130   0 0 0 0
G02140           N02708           N01272           89.443     0.0130   0 0 0 0
G02141           N02709           N01616           56.569     0.0130   0 0 0 0
G02142           N02710           N02114           80.000     0.0130   0 0 0 0
G02143           N02711           N02109           80.000     0.0130   0 0 0 0
G02144           N02712           N02109           100.000    0.0130   0 0 0 0
G02145           N02713           N02703           60.000     0.0130   0 0 0 0
G02146           N02714           N00361           80.000     0.0130   0 0 0 0
G02147           N02715           N01031           100.000    0.0130   0 0 0 0
G02148           N02716           N02715           161.245    0.0130   0 0 0 0
G02149           N02717           N00334           20.000     0.0130   0 0 0 0
G02150           N02718           N01931           82.462     0.0130   0 0 0 0
G02151           N02719           N00692           89.443     0.0130   0 0 0 0
G02152           N02720           N02146           40.000     0.0130   0 0 0 0
G02153           N02721           N02545           80.000     0.0130   0 0 0 0
G02154           N02722           N02739           63.246     0.0130   0 0 0 0
G02155           N02723           N02722           216.333    0.0130   0 0 0 0
G02156           N02724           N02723           156.205    0.0130   0 0 0 0
G02157           N02726           N02447           72.111     0.0130   0 0 0 0
G02158           N02727           N02632           44.721     0.0130   0 0 0 0
G02159           N02728           N02727           220.907    0.0130   0 0 0 0
G02160           N02729           N02739           56.569     0.0130   0 0 0 0
G02161           N02730           N02804           56.569     0.0130   0 0 0 0
G02162           N02731           N02739           44.721     0.0130   0 0 0 0
G02163           N02734           N02739           72.111     0.0130   0 0 0 0
G02164           N02735           N02633           100.000    0.0130   0 0 0 0
G02165           N02736           N02735           200.000    0.0130   0 0 0 0
G02166           N02737           N02584           44.721     0.0130   0 0 0 0
G02167           N02738           N02737           200.000    0.0130   0 0 0 0
G02168           N02739           N02740           220.000    0.0130   0 0 0 0
G02169           N02740           N02447           101.980    0.0130   0 0 0 0
G02170           N02741           N02722           63.246     0.0130   0 0 0 0
G02171           N02742           N01599           80.000     0.0130   0 0 0 0
G02172           N02743           N00134           44.721     0.0130   0 0 0 0
G02173           N02744           N00236           20.000     0.0130   0 0 0 0
G02174           N02745           N00631           80.000     0.0130   0 0 0 0
G02175           N02746           N02145           100.000    0.0130   0 0 0 0
G02176           N02747           N01885           28.284     0.0130   0 0 0 0
G02177           N02748           N00610           44.721     0.0130   0 0 0 0
G02178           N02749           N00609           82.462     0.0130   0 0 0 0
G02179           N02750           N02749           184.391    0.0130   0 0 0 0
G02180           N02751           N00672           196.977    0.0130   0 0 0 0
G02181           N02752           N02750           44.721     0.0130   0 0 0 0
G02182           N02753           N00875           63.246     0.0130   0 0 0 0
G02183           N02754           N02753           100.000    0.0130   0 0 0 0
G02184           N02755           N01993           82.462     0.0130   0 0 0 0
G02185           N02761           N01884           44.721     0.0130   0 0 0 0
G02186           N02765           N01123           60.000     0.0130   0 0 0 0
G02187           N02766           N02819           63.246     0.0130   0 0 0 0
G02188           N02767           N02620           80.000     0.0130   0 0 0 0
G02189           N02768           N01701           161.245    0.0130   0 0 0 0
G02190           N02769           N00877           100.000    0.0130   0 0 0 0
G02191           N02775           N02774           82.462     0.0130   0 0 0 0
G02192           N02776           N01890           101.980    0.0130   0 0 0 0
G02193           N02777           N00991           101.980    0.0130   0 0 0 0
G02194           N02778           N00985           80.000     0.0130   0 0 0 0
G02195           N02779           N00989           126.491    0.0130   0 0 0 0
G02196           N02780           N00503           40.000     0.0130   0 0 0 0
G02197           N02781           N00503           63.246     0.0130   0 0 0 0
G02198           N02782           N00996           82.462     0.0130   0 0 0 0
G02199           N02785           N02669           89.443     0.0130   0 0 0 0
G02200           N02786           N02670           121.655    0.0130   0 0 0 0
G02201           N02787           N02668           63.246     0.0130   0 0 0 0
G02202           N02791           N02464           89.443     0.0130   0 0 0 0
G02203           N02792           N02469           89.443     0.0130   0 0 0 0
G02204           N02793           N02109           28.284     0.0130   0 0 0 0
G02205           N02794           N01287           40.000     0.0130   0 0 0 0
G02206           N02795           N01665           40.000     0.0130   0 0 0 0
G02207           N02796           N02623           28.284     0.0130   0 0 0 0
G02208           N02798           N02799           172.047    0.0130   0 0 0 0
G02209           N02799           N02739           28.284     0.0130   0 0 0 0
G02210           N02800           N01547           72.111     0.0130   0 0 0 0
G02211           N02801           N01031           100.000    0.0130   0 0 0 0
G02212           N02802           N02081           134.164    0.0130   0 0 0 0
G02213           N02803           N01510           84.853     0.0130   0 0 0 0
G02214           N02804           N02798           72.111     0.0130   0 0 0 0
G02215           N02805           N00745           28.284     0.0130   0 0 0 0
G02216           N02809           N01913           40.000     0.0130   0 0 0 0
G02217           N02810           N00296           60.000     0.0130   0 0 0 0
G02218           N02811           N02713           80.000     0.0130   0 0 0 0
G02219           N02812           N02703           56.569     0.0130   0 0 0 0
G02220           N02813           N02211           44.721     0.0130   0 0 0 0
G02221           N02814           N02813           160.000    0.0130   0 0 0 0
G02222           N02815           N01742           82.462     0.0130   0 0 0 0
G02223           N02816           N00336           100.000    0.0130   0 0 0 0
G02224           N02817           N02816           100.000    0.0130   0 0 0 0
G02225           N02818           N02444           44.721     0.0130   0 0 0 0
G02226           N02819           N00877           82.462     0.0130   0 0 0 0
G02227           N02820           N02821           161.245    0.0130   0 0 0 0
G02228           N02821           N01880           72.111     0.0130   0 0 0 0
G02229           N02822           N01879           72.111     0.0130   0 0 0 0
G02230           N02823           N01625           89.443     0.0130   0 0 0 0
G02231           N02824           N02823           184.391    0.0130   0 0 0 0
G02232           N02825           N02009           20.000     0.0130   0 0 0 0
G02233           N02826           N02266           200.000    0.0130   0 0 0 0
G02234           N02827           N02826           160.000    0.0130   0 0 0 0
G02235           N02828           N00774           100.000    0.0130   0 0 0 0
G02236           N02830           N02829           200.000    0.0130   0 0 0 0
G02237           N02831           N02410           44.721     0.0130   0 0 0 0
G02238           N02832           N01528           60.000     0.0130   0 0 0 0
G02239           N02833           N00553           56.569     0.0130   0 0 0 0
G02240           N02834           N02835           120.000    0.0130   0 0 0 0
G02241           N02835           N02836           184.391    0.0130   0 0 0 0
G02242           N02836           N01528           82.462     0.0130   0 0 0 0
G02243           N02838           N00074           82.462     0.0130   0 0 0 0
G02244           N02840           N02841           196.977    0.0130   0 0 0 0
G02245           N02841           N02408           20.000     0.0130   0 0 0 0
G02246           N02842           N01615           80.000     0.0130   0 0 0 0
G02247           N02843           N02782           63.246     0.0130   0 0 0 0
G02248           N02844           N00996           28.284     0.0130   0 0 0 0
G02249           N02845           N01002           72.111     0.0130   0 0 0 0
G02250           N02846           N01130           181.108    0.0130   0 0 0 0
O00001           N00211           OUT01            20.000     0.0130   0 0 0 0
O00002           N00092           OUT02            20.000     0.0130   0 0 0 0
O00003           N02002           OUT03            20.000     0.0130   0 0 0 0
O00004           N01685           OUT04            20.000     0.0130   0 0 0 0
O00005           N00682           OUT05            20.000     0.0130   0 0 0 0
O00006           N01198           OUT06            20.000     0.0130   0 0 0 0
O00007           N01868           OUT07            20.000     0.0130   0 0 0 0
O00008           N00927           OUT08            20.000     0.0130   0 0 0 0
O00009           N02367           OUT09            20.000     0.0130   0 0 0 0
O00010           N02181           OUT10            20.000     0.0130   0 0 0 0
O00011           N00744           OUT11            20.000     0.0130   0 0 0 0
O00012           N01214           OUT12            20.000     0.0130   0 0 0 0
O00013           N02829           OUT13            20.000     0.0130   0 0 0 0
O00014           N02608           OUT14            20.000     0.0130   0 0 0 0
O00015           N01930           OUT15            20.000     0.0130   0 0 0 0
O00016           N02253           OUT16            20.000     0.0130   0 0 0 0
O00017           N02774           OUT17            20.000     0.0130   0 0 0 0
O00018           N01081           OUT18            20.000     0.0130   0 0 0 0
O00019           N00891           OUT19            20.000     0.0130   0 0 0 0
O00020           N01845           OUT20            20.000     0.0130   0 0 0 0
O00021           N02289           OUT21            20.000     0.0130   0 0 0 0
O00022           N01476           OUT22            20.000     0.0130   0 0 0 0
O00023           N00013           OUT23            20.000     0.0130   0 0 0 0
O00024           N02725           OUT24            20.000     0.0130   0 0 0 0
O00025           N01022           OUT25            20.000     0.0130   0 0 0 0
O00026           N02064           OUT26            20.000     0.0130   0 0 0 0
O00027           N02064           OUT27            20.000     0.0130   0 0 0 0
O00028           N02064           OUT28            20.000     0.0130   0 0 0 0
O00029           N02064           OUT29            20.000     0.0130   0 0 0 0
O00030           N02064           OUT30            20.000     0.0130   0 0 0 0
O00031           N02064           OUT31            20.000     0.0130   0 0 0 0
O00032           N02064           OUT32            20.000     0.0130   0 0 0 0
O00033           N02064           OUT33            20.000     0.0130   0 0 0 0
O00034           N02064           OUT34            20.000     0.0130   0 0 0 0
O00035           N02064           OUT35            20.000     0.0130   0 0 0 0
O00036           N02064           OUT36            20.000     0.0130   0 0 0 0
O00037           N02064           OUT37            20.000     0.0130   0 0 0 0
O00038           N02064           OUT38            20.000     0.0130   0 0 0 0
O00039           N02064           OUT39            20.000     0.0130   0 0 0 0
O00040           N02064           OUT40            20.000     0.0130   0 0 0 0
O00041           N02064           OUT41            20.000     0.0130   0 0 0 0
O00042           N02064           OUT42            20.000     0.0130   0 0 0 0
O00043           N02064           OUT43            20.000     0.0130   0 0 0 0
O00044           N02064           OUT44            20.000     0.0130   0 0 0 0
O00045           N02064           OUT45            20.000     0.0130   0 0 0 0
O00046           N02064           OUT46            20.000     0.0130   0 0 0 0
O00047           N02064           OUT47            20.000     0.0130   0 0 0 0
O00048           N02064           OUT48            20.000     0.0130   0 0 0 0
O00049           N02064           OUT49            20.000     0.0130   0 0 0 0
O00050           N02064           OUT50            20.000     0.0130   0 0 0 0
O00051           N02064           OUT51            20.000     0.0130   0 0 0 0
O00052           N02064           OUT52            20.000     0.0130   0 0 0 0
O00053           N02064           OUT53            20.000     0.0130   0 0 0 0
O00054           N02064           OUT54            20.000     0.0130   0 0 0 0
O00055           N02064           OUT55            20.000     0.0130   0 0 0 0
O00056           N02064           OUT56            20.000     0.0130   0 0 0 0
O00057           N02064           OUT57            20.000     0.0130   0 0 0 0
O00058           N02064           OUT58            20.000     0.0130   0 0 0 0
O00059           N02064           OUT59            20.000     0.0130   0 0 0 0
O00060           N02064           OUT60            20.000     0.0130   0 0 0 0
O00061           N02064           OUT61            20.000     0.0130   0 0 0 0
O00062           N02064           OUT62            20.000     0.0130   0 0 0 0
O00063           N02064           OUT63            20.000     0.0130   0 0 0 0
O00064           N02064           OUT64            20.000     0.0130   0 0 0 0
O00065           N02064           OUT65            20.000     0.0130   0 0 0 0
O00066           N02064           OUT66            20.000     0.0130   0 0 0 0
O00067           N02064           OUT67            20.000     0.0130   0 0 0 0
O00068           N02064           OUT68            20.000     0.0130   0 0 0 0
O00069           N02064           OUT69            20.000     0.0130   0 0 0 0
O00070           N02064           OUT70            20.000     0.0130   0 0 0 0
O00071           N02064           OUT71            20.000     0.0130   0 0 0 0
O00072           N02064           OUT72            20.000     0.0130   0 0 0 0
O00073           N02064           OUT73            20.000     0.0130   0 0 0 0
O00074           N02064           OUT74            20.000     0.0130   0 0 0 0
O00075           N02064           OUT75            20.000     0.0130   0 0 0 0
O00076           N02064           OUT76            20.000     0.0130   0 0 0 0
O00077           N02064           OUT77            20.000     0.0130   0 0 0 0
O00078           N02064           OUT78            20.000     0.0130   0 0 0 0
O00079           N02064           OUT79            20.000     0.0130   0 0 0 0
O00080           N02064           OUT80            20.000     0.0130   0 0 0 0
O00081           N02064           OUT81            20.000     0.0130   0 0 0 0
O00082           N02064           OUT82            20.000     0.0130   0 0 0 0
O00083           N02064           OUT83            20.000     0.0130   0 0 0 0
O00084           N02064           OUT84            20.000     0.0130   0 0 0 0
O00085           N02064           OUT85            20.000     0.0130   0 0 0 0
O00086           N02064           OUT86            20.000     0.0130   0 0 0 0
O00087           N02064           OUT87            20.000     0.0130   0 0 0 0
O00088           N02064           OUT88            20.000     0.0130   0 0 0 0
O00089           N02064           OUT89            20.000     0.0130   0 0 0 0
O00090           N02064           OUT90            20.000     0.0130   0 0 0 0
O00091           N02064           OUT91            20.000     0.0130   0 0 0 0
O00092           N02064           OUT92            20.000     0.0130   0 0 0 0
O00093           N02064           OUT93            20.000     0.0130   0 0 0 0
O00094           N02064           OUT94            20.000     0.0130   0 0 0 0
O00095           N02064           OUT95            20.000     0.0130   0 0 0 0
O00096           N02064           OUT96            20.000     0.0130   0 0 0 0
O00097           N02064           OUT97            20.000     0.0130   0 0 0 0
O00098           N02064           OUT98            20.000     0.0130   0 0 0 0
O00099           N02064           OUT99            20.000     0.0130   0 0 0 0
O00100           N02064           OUT100           20.000     0.0130   0 0 0 0
O00101           N02064           OUT101           20.000     0.0130   0 0 0 0
O00102           N02064           OUT102           20.000     0.0130   0 0 0 0
O00103           N02064           OUT103           20.000     0.0130   0 0 0 0
O00104           N02064           OUT104           20.000     0.0130   0 0 0 0
O00105           N02064           OUT105           20.000     0.0130   0 0 0 0
O00106           N02064           OUT106           20.000     0.0130   0 0 0 0
O00107           N02064           OUT107           20.000     0.0130   0 0 0 0
O00108           N02064           OUT108           20.000     0.0130   0 0 0 0
O00109           N02064           OUT109           20.000     0.0130   0 0 0 0
O00110           N02064           OUT110           20.000     0.0130   0 0 0 0
O00111           N02064           OUT111           20.000     0.0130   0 0 0 0
O00112           N02064           OUT112           20.000     0.0130   0 0 0 0
O00113           N02064           OUT113           20.000     0.0130   0 0 0 0
O00114           N02064           OUT114           20.000     0.0130   0 0 0 0
O00115           N02064           OUT115           20.000     0.0130   0 0 0 0
O00116           N02064           OUT116           20.000     0.0130   0 0 0 0
O00117           N02064           OUT117           20.000     0.0130   0 0 0 0
O00118           N02064           OUT118           20.000     0.0130   0 0 0 0
O00119           N02064           OUT119           20.000     0.0130   0 0 0 0
O00120           N02064           OUT120           20.000     0.0130   0 0 0 0
O00121           N02064           OUT121           20.000     0.0130   0 0 0 0
O00122           N02064           OUT122           20.000     0.0130   0 0 0 0
O00123           N02064           OUT123           20.000     0.0130   0 0 0 0
O00124           N02064           OUT124           20.000     0.0130   0 0 0 0
O00125           N02064           OUT125           20.000     0.0130   0 0 0 0
O00126           N02064           OUT126           20.000     0.0130   0 0 0 0
O00127           N02064           OUT127           20.000     0.0130   0 0 0 0
O00128           N02064           OUT128           20.000     0.0130   0 0 0 0
O00129           N02064           OUT129           20.000     0.0130   0 0 0 0
O00130           N02064           OUT130           20.000     0.0130   0 0 0 0
O00131           N02064           OUT131           20.000     0.0130   0 0 0 0
O00132           N02064           OUT132           20.000     0.0130   0 0 0 0
O00133           N02064           OUT133           20.000     0.0130   0 0 0 0
O00134           N02064           OUT134           20.000     0.0130   0 0 0 0
O00135           N02064           OUT135           20.000     0.0130   0 0 0 0
O00136           N02064           OUT136           20.000     0.0130   0 0 0 0
O00137           N02064           OUT137           20.000     0.0130   0 0 0 0
O00138           N02064           OUT138           20.000     0.0130   0 0 0 0
O00139           N02064           OUT139           20.000     0.0130   0 0 0 0
O00140           N02064           OUT140           20.000     0.0130   0 0 0 0
O00141           N02064           OUT141           20.000     0.0130   0 0 0 0
O00142           N02064           OUT142           20.000     0.0130   0 0 0 0
O00143           N02064           OUT143           20.000     0.0130   0 0 0 0
O00144           N02064           OUT144           20.000     0.0130   0 0 0 0
O00145           N02064           OUT145           20.000     0.0130   0 0 0 0
O00146           N02064           OUT146           20.000     0.0130   0 0 0 0
O00147           N02064           OUT147           20.000     0.0130   0 0 0 0
O00148           N02064           OUT148           20.000     0.0130   0 0 0 0
O00149           N02064           OUT149           20.000     0.0130   0 0 0 0
O00150           N02064           OUT150           20.000     0.0130   0 0 0 0
O00151           N02064           OUT151           20.000     0.0130   0 0 0 0
O00152           N02064           OUT152           20.000     0.0130   0 0 0 0
O00153           N02064           OUT153           20.000     0.0130   0 0 0 0
O00154           N02064           OUT154           20.000     0.0130   0 0 0 0
O00155           N02064           OUT155           20.000     0.0130   0 0 0 0
O00156           N02064           OUT156           20.000     0.0130   0 0 0 0
O00157           N02064           OUT157           20.000     0.0130   0 0 0 0
O00158           N02064           OUT158           20.000     0.0130   0 0 0 0
O00159           N02064           OUT159           20.000     0.0130   0 0 0 0
O00160           N02064           OUT160           20.000     0.0130   0 0 0 0
O00161           N02064           OUT161           20.000     0.0130   0 0 0 0
O00162           N02064           OUT162           20.000     0.0130   0 0 0 0
O00163           N02064           OUT163           20.000     0.0130   0 0 0 0
O00164           N02064           OUT164           20.000     0.0130   0 0 0 0
O00165           N02064           OUT165           20.000     0.0130   0 0 0 0
O00166           N02064           OUT166           20.000     0.0130   0 0 0 0
O00167           N02064           OUT167           20.000     0.0130   0 0 0 0
O00168           N02064           OUT168           20.000     0.0130   0 0 0 0
O00169           N02064           OUT169           20.000     0.0130   0 0 0 0
O00170           N02064           OUT170           20.000     0.0130   0 0 0 0
O00171           N02064           OUT171           20.000     0.0130   0 0 0 0
O00172           N02064           OUT172           20.000     0.0130   0 0 0 0
O00173           N02064           OUT173           20.000     0.0130   0 0 0 0
O00174           N02064           OUT174           20.000     0.0130   0 0 0 0
O00175           N02064           OUT175           20.000     0.0130   0 0 0 0
O00176           N02064           OUT176           20.000     0.0130   0 0 0 0
O00177           N02064           OUT177           20.000     0.0130   0 0 0 0
O00178           N02064           OUT178           20.000     0.0130   0 0 0 0
O00179           N02064           OUT179           20.000     0.0130   0 0 0 0
O00180           N02064           OUT180           20.000     0.0130   0 0 0 0
O00181           N02064           OUT181           20.000     0.0130   0 0 0 0
O00182           N02064           OUT182           20.000     0.0130   0 0 0 0
O00183           N02064           OUT183           20.000     0.0130   0 0 0 0
O00184           N02064           OUT184           20.000     0.0130   0 0 0 0
O00185           N02064           OUT185           20.000     0.0130   0 0 0 0
O00186           N02064           OUT186           20.000     0.0130   0 0 0 0
O00187           N02064           OUT187           20.000     0.0130   0 0 0 0
O00188           N02064           OUT188           20.000     0.0130   0 0 0 0
O00189           N02064           OUT189           20.000     0.0130   0 0 0 0
O00190           N02064           OUT190           20.000     0.0130   0 0 0 0
O00191           N02064           OUT191           20.000     0.0130   0 0 0 0
O00192           N02064           OUT192           20.000     0.0130   0 0 0 0
O00193           N02064           OUT193           20.000     0.0130   0 0 0 0
O00194           N02064           OUT194           20.000     0.0130   0 0 0 0
O00195           N02064           OUT195           20.000     0.0130   0 0 0 0
O00196           N02064           OUT196           20.000     0.0130   0 0 0 0
O00197           N02064           OUT197           20.000     0.0130   0 0 0 0
O00198           N02064           OUT198           20.000     0.0130   0 0 0 0
O00199           N02064           OUT199           20.000     0.0130   0 0 0 0
O00200           N02064           OUT200           20.000     0.0130   0 0 0 0
O00201           N02064           OUT201           20.000     0.0130   0 0 0 0
O00202           N02064           OUT202           20.000     0.0130   0 0 0 0
O00203           N02064           OUT203           20.000     0.0130   0 0 0 0
O00204           N02064           OUT204           20.000     0.0130   0 0 0 0
O00205           N02064           OUT205           20.000     0.0130   0 0 0 0
O00206           N02064           OUT206           20.000     0.0130   0 0 0 0
O00207           N02064           OUT207           20.000     0.0130   0 0 0 0
O00208           N02064           OUT208           20.000     0.0130   0 0 0 0
O00209           N02064           OUT209           20.000     0.0130   0 0 0 0
O00210           N02064           OUT210           20.000     0.0130   0 0 0 0
O00211           N02064           OUT211           20.000     0.0130   0 0 0 0
O00212           N02064           OUT212           20.000     0.0130   0 0 0 0
O00213           N02064           OUT213           20.000     0.0130   0 0 0 0
O00214           N02064           OUT214           20.000     0.0130   0 0 0 0
O00215           N02064           OUT215           20.000     0.0130   0 0 0 0
O00216           N02064           OUT216           20.000     0.0130   0 0 0 0
O00217           N02064           OUT217           20.000     0.0130   0 0 0 0
O00218           N02064           OUT218           20.000     0.0130   0 0 0 0
O00219           N02064           OUT219           20.000     0.0130   0 0 0 0
O00220           N02064           OUT220           20.000     0.0130   0 0 0 0
O00221           N02064           OUT221           20.000     0.0130   0 0 0 0
O00222           N02064           OUT222           20.000     0.0130   0 0 0 0
O00223           N02064           OUT223           20.000     0.0130   0 0 0 0
O00224           N02064           OUT224           20.000     0.0130   0 0 0 0
O00225           N02064           OUT225           20.000     0.0130   0 0 0 0
O00226           N02064           OUT226           20.000     0.0130   0 0 0 0
O00227           N02064           OUT227           20.000     0.0130   0 0 0 0
O00228           N02064           OUT228           20.000     0.0130   0 0 0 0
O00229           N02064           OUT229           20.000     0.0130   0 0 0 0
O00230           N02064           OUT230           20.000     0.0130   0 0 0 0
O00231           N02064           OUT231           20.000     0.0130   0 0 0 0
O00232           N02064           OUT232           20.000     0.0130   0 0 0 0
O00233           N02064           OUT233           20.000     0.0130   0 0 0 0
O00234           N02064           OUT234           20.000     0.0130   0 0 0 0
O00235           N02064           OUT235           20.000     0.0130   0 0 0 0
O00236           N02064           OUT236           20.000     0.0130   0 0 0 0
O00237           N02064           OUT237           20.000     0.0130   0 0 0 0
O00238           N02064           OUT238           20.000     0.0130   0 0 0 0
O00239           N02064           OUT239           20.000     0.0130   0 0 0 0
O00240           N02064           OUT240           20.000     0.0130   0 0 0 0
O00241           N02064           OUT241           20.000     0.0130   0 0 0 0
O00242           N02064           OUT242           20.000     0.0130   0 0 0 0
O00243           N02064           OUT243           20.000     0.0130   0 0 0 0
O00244           N02064           OUT244           20.000     0.0130   0 0 0 0
O00245           N02064           OUT245           20.000     0.0130   0 0 0 0
O00246           N02064           OUT246           20.000     0.0130   0 0 0 0
O00247           N02064           OUT247           20.000     0.0130   0 0 0 0
O00248           N02064           OUT248           20.000     0.0130   0 0 0 0
O00249           N02064           OUT249           20.000     0.0130   0 0 0 0
O00250           N02064           OUT250           20.000     0.0130   0 0 0 0
O00251           N02064           OUT251           20.000     0.0130   0 0 0 0
O00252           N02064           OUT252           20.000     0.0130   0 0 0 0
O00253           N02064           OUT253           20.000     0.0130   0 0 0 0
O00254           N02064           OUT254           20.000     0.0130   0 0 0 0
O00255           N02064           OUT255           20.000     0.0130   0 0 0 0
O00256           N02064           OUT256           20.000     0.0130   0 0 0 0
O00257           N02064           OUT257           20.000     0.0130   0 0 0 0
O00258           N02064           OUT258           20.000     0.0130   0 0 0 0
O00259           N02064           OUT259           20.000     0.0130   0 0 0 0
O00260           N02064           OUT260           20.000     0.0130   0 0 0 0
O00261           N02064           OUT261           20.000     0.0130   0 0 0 0
O00262           N02064           OUT262           20.000     0.0130   0 0 0 0
O00263           N02064           OUT263           20.000     0.0130   0 0 0 0
O00264           N02064           OUT264           20.000     0.0130   0 0 0 0
O00265           N02064           OUT265           20.000     0.0130   0 0 0 0
O00266           N02064           OUT266           20.000     0.0130   0 0 0 0
O00267           N02064           OUT267           20.000     0.0130   0 0 0 0
O00268           N02064           OUT268           20.000     0.0130   0 0 0 0
O00269           N02064           OUT269           20.000     0.0130   0 0 0 0
O00270           N02064           OUT270           20.000     0.0130   0 0 0 0
O00271           N02064           OUT271           20.000     0.0130   0 0 0 0
O00272           N02064           OUT272           20.000     0.0130   0 0 0 0
O00273           N02064           OUT273           20.000     0.0130   0 0 0 0
O00274           N02064           OUT274           20.000     0.0130   0 0 0 0
O00275           N02064           OUT275           20.000     0.0130   0 0 0 0
O00276           N02064           OUT276           20.000     0.0130   0 0 0 0
O00277           N02064           OUT277           20.000     0.0130   0 0 0 0
O00278           N02064           OUT278           20.000     0.0130   0 0 0 0
O00279           N02064           OUT279           20.000     0.0130   0 0 0 0
O00280           N02064           OUT280           20.000     0.0130   0 0 0 0
O00281           N02064           OUT281           20.000     0.0130   0 0 0 0
O00282           N02064           OUT282           20.000     0.0130   0 0 0 0
O00283           N02064           OUT283           20.000     0.0130   0 0 0 0
O00284           N02064           OUT284           20.000     0.0130   0 0 0 0
O00285           N02064           OUT285           20.000     0.0130   0 0 0 0
O00286           N02064           OUT286           20.000     0.0130   0 0 0 0
O00287           N02064           OUT287           20.000     0.0130   0 0 0 0
O00288           N02064           OUT288           20.000     0.0130   0 0 0 0
O00289           N02064           OUT289           20.000     0.0130   0 0 0 0
O00290           N02064           OUT290           20.000     0.0130   0 0 0 0
O00291           N02064           OUT291           20.000     0.0130   0 0 0 0
O00292           N02064           OUT292           20.000     0.0130   0 0 0 0
O00293           N02064           OUT293           20.000     0.0130   0 0 0 0
O00294           N02064           OUT294           20.000     0.0130   0 0 0 0
O00295           N02064           OUT295           20.000     0.0130   0 0 0 0
O00296           N02064           OUT296           20.000     0.0130   0 0 0 0
O00297           N02064           OUT297           20.000     0.0130   0 0 0 0
O00298           N02064           OUT298           20.000     0.0130   0 0 0 0
O00299           N02064           OUT299           20.000     0.0130   0 0 0 0
O00300           N02064           OUT300           20.000     0.0130   0 0 0 0
O00301           N02064           OUT301           20.000     0.0130   0 0 0 0
O00302           N02064           OUT302           20.000     0.0130   0 0 0 0
O00303           N02064           OUT303           20.000     0.0130   0 0 0 0
O00304           N02064           OUT304           20.000     0.0130   0 0 0 0
O00305           N02064           OUT305           20.000     0.0130   0 0 0 0
O00306           N02064           OUT306           20.000     0.0130   0 0 0 0
O00307           N02064           OUT307           20.000     0.0130   0 0 0 0
O00308           N02064           OUT308           20.000     0.0130   0 0 0 0
O00309           N02064           OUT309           20.000     0.0130   0 0 0 0
O00310           N02064           OUT310           20.000     0.0130   0 0 0 0
O00311           N02064           OUT311           20.000     0.0130   0 0 0 0
O00312           N02064           OUT312           20.000     0.0130   0 0 0 0
O00313           N02064           OUT313           20.000     0.0130   0 0 0 0
O00314           N02064           OUT314           20.000     0.0130   0 0 0 0
O00315           N02064           OUT315           20.000     0.0130   0 0 0 0
O00316           N02064           OUT316           20.000     0.0130   0 0 0 0
O00317           N02064           OUT317           20.000     0.0130   0 0 0 0
O00318           N02064           OUT318           20.000     0.0130   0 0 0 0
O00319           N02064           OUT319           20.000     0.0130   0 0 0 0
O00320           N02064           OUT320           20.000     0.0130   0 0 0 0
O00321           N02064           OUT321           20.000     0.0130   0 0 0 0
O00322           N02064           OUT322           20.000     0.0130   0 0 0 0
O00323           N02064           OUT323           20.000     0.0130   0 0 0 0
O00324           N02064           OUT324           20.000     0.0130   0 0 0 0
O00325           N02064           OUT325           20.000     0.0130   0 0 0 0
O00326           N02064           OUT326           20.000     0.0130   0 0 0 0
O00327           N02064           OUT327           20.000     0.0130   0 0 0 0
O00328           N02064           OUT328           20.000     0.0130   0 0 0 0
O00329           N02064           OUT329           20.000     0.0130   0 0 0 0
O00330           N02064           OUT330           20.000     0.0130   0 0 0 0
O00331           N02064           OUT331           20.000     0.0130   0 0 0 0
O00332           N02064           OUT332           20.000     0.0130   0 0 0 0
O00333           N02064           OUT333           20.000     0.0130   0 0 0 0
O00334           N02064           OUT334           20.000     0.0130   0 0 0 0
O00335           N02064           OUT335           20.000     0.0130   0 0 0 0
O00336           N02064           OUT336           20.000     0.0130   0 0 0 0
O00337           N02064           OUT337           20.000     0.0130   0 0 0 0
O00338           N02064           OUT338           20.000     0.0130   0 0 0 0
O00339           N02064           OUT339           20.000     0.0130   0 0 0 0
O00340           N02064           OUT340           20.000     0.0130   0 0 0 0
O00341           N02064           OUT341           20.000     0.0130   0 0 0 0
O00342           N02064           OUT342           20.000     0.0130   0 0 0 0
O00343           N02064           OUT343           20.000     0.0130   0 0 0 0
O00344           N02064           OUT344           20.000     0.0130   0 0 0 0
O00345           N02064           OUT345           20.000     0.0130   0 0 0 0
O00346           N02064           OUT346           20.000     0.0130   0 0 0 0
O00347           N02064           OUT347           20.000     0.0130   0 0 0 0
O00348           N02064           OUT348           20.000     0.0130   0 0 0 0
O00349           N02064           OUT349           20.000     0.0130   0 0 0 0
O00350           N02064           OUT350           20.000     0.0130   0 0 0 0
O00351           N02064           OUT351           20.000     0.0130   0 0 0 0
O00352           N02064           OUT352           20.000     0.0130   0 0 0 0
O00353           N02064           OUT353           20.000     0.0130   0 0 0 0
O00354           N02064           OUT354           20.000     0.0130   0 0 0 0
O00355           N02064           OUT355           20.000     0.0130   0 0 0 0
O00356           N02064           OUT356           20.000     0.0130   0 0 0 0
O00357           N02064           OUT357           20.000     0.0130   0 0 0 0
O00358           N02064           OUT358           20.000     0.0130   0 0 0 0
O00359           N02064           OUT359           20.000     0.0130   0 0 0 0
O00360           N02064           OUT360           20.000     0.0130   0 0 0 0
O00361           N02064           OUT361           20.000     0.0130   0 0 0 0
O00362           N02064           OUT362           20.000     0.0130   0 0 0 0
O00363           N02064           OUT363           20.000     0.0130   0 0 0 0
O00364           N02064           OUT364           20.000     0.0130   0 0 0 0
O00365           N02064           OUT365           20.000     0.0130   0 0 0 0
O00366           N02064           OUT366           20.000     0.0130   0 0 0 0
O00367           N02064           OUT367           20.000     0.0130   0 0 0 0
O00368           N02064           OUT368           20.000     0.0130   0 0 0 0
O00369           N02064           OUT369           20.000     0.0130   0 0 0 0
O00370           N02064           OUT370           20.000     0.0130   0 0 0 0
O00371           N02064           OUT371           20.000     0.0130   0 0 0 0
O00372           N02064           OUT372           20.000     0.0130   0 0 0 0
O00373           N02064           OUT373           20.000     0.0130   0 0 0 0
O00374           N02064           OUT374           20.000     0.0130   0 0 0 0
O00375           N02064           OUT375           20.000     0.0130   0 0 0 0
O00376           N02064           OUT376           20.000     0.0130   0 0 0 0
O00377           N02064           OUT377           20.000     0.0130   0 0 0 0
O00378           N02064           OUT378           20.000     0.0130   0 0 0 0
O00379           N02064           OUT379           20.000     0.0130   0 0 0 0
O00380           N02064           OUT380           20.000     0.0130   0 0 0 0
O00381           N02064           OUT381           20.000     0.0130   0 0 0 0
O00382           N02064           OUT382           20.000     0.0130   0 0 0 0
O00383           N02064           OUT383           20.000     0.0130   0 0 0 0
O00384           N02064           OUT384           20.000     0.0130   0 0 0 0
O00385           N02064           OUT385           20.000     0.0130   0 0 0 0
O00386           N02064           OUT386           20.000     0.0130   0 0 0 0
O00387           N02064           OUT387           20.000     0.0130   0 0 0 0
O00388           N02064           OUT388           20.000     0.0130   0 0 0 0
O00389           N02064           OUT389           20.000     0.0130   0 0 0 0
O00390           N02064           OUT390           20.000     0.0130   0 0 0 0
O00391           N02064           OUT391           20.000     0.0130   0 0 0 0
O00392           N02064           OUT392           20.000     0.0130   0 0 0 0
O00393           N02064           OUT393           20.000     0.0130   0 0 0 0
O00394           N02064           OUT394           20.000     0.0130   0 0 0 0
O00395           N02064           OUT395           20.000     0.0130   0 0 0 0
O00396           N02064           OUT396           20.000     0.0130   0 0 0 0
O00397           N02064           OUT397           20.000     0.0130   0 0 0 0
O00398           N02064           OUT398           20.000     0.0130   0 0 0 0
O00399           N02064           OUT399           20.000     0.0130   0 0 0 0
O00400           N02064           OUT400           20.000     0.0130   0 0 0 0
O00401           N02064           OUT401           20.000     0.0130   0 0 0 0
O00402           N02064           OUT402           20.000     0.0130   0 0 0 0
O00403           N02064           OUT403           20.000     0.0130   0 0 0 0
O00404           N02064           OUT404           20.000     0.0130   0 0 0 0
O00405           N02064           OUT405           20.000     0.0130   0 0 0 0
O00406           N02064           OUT406           20.000     0.0130   0 0 0 0
O00407           N02064           OUT407           20.000     0.0130   0 0 0 0
O00408           N02064           OUT408           20.000     0.0130   0 0 0 0
O00409           N02064           OUT409           20.000     0.0130   0 0 0 0
O00410           N02064           OUT410           20.000     0.0130   0 0 0 0
O00411           N02064           OUT411           20.000     0.0130   0 0 0 0
O00412           N02064           OUT412           20.000     0.0130   0 0 0 0
O00413           N02064           OUT413           20.000     0.0130   0 0 0 0
O00414           N02064           OUT414           20.000     0.0130   0 0 0 0
O00415           N02064           OUT415           20.000     0.0130   0 0 0 0
O00416           N02064           OUT416           20.000     0.0130   0 0 0 0
O00417           N02064           OUT417           20.000     0.0130   0 0 0 0
O00418           N02064           OUT418           20.000     0.0130   0 0 0 0
O00419           N02064           OUT419           20.000     0.0130   0 0 0 0
O00420           N02064           OUT420           20.000     0.0130   0 0 0 0
O00421           N02064           OUT421           20.000     0.0130   0 0 0 0
O00422           N02064           OUT422           20.000     0.0130   0 0 0 0
O00423           N02064           OUT423           20.000     0.0130   0 0 0 0
O00424           N02064           OUT424           20.000     0.0130   0 0 0 0
O00425           N02064           OUT425           20.000     0.0130   0 0 0 0
O00426           N02064           OUT426           20.000     0.0130   0 0 0 0
O00427           N02064           OUT427           20.000     0.0130   0 0 0 0
O00428           N02064           OUT428           20.000     0.0130   0 0 0 0
O00429           N02064           OUT429           20.000     0.0130   0 0 0 0
O00430           N02064           OUT430           20.000     0.0130   0 0 0 0
O00431           N02064           OUT431           20.000     0.0130   0 0 0 0
O00432           N02064           OUT432           20.000     0.0130   0 0 0 0
O00433           N02064           OUT433           20.000     0.0130   0 0 0 0
O00434           N02064           OUT434           20.000     0.0130   0 0 0 0
O00435           N02064           OUT435           20.000     0.0130   0 0 0 0
O00436           N02064           OUT436           20.000     0.0130   0 0 0 0
O00437           N02064           OUT437           20.000     0.0130   0 0 0 0
O00438           N02064           OUT438           20.000     0.0130   0 0 0 0
O00439           N02064           OUT439           20.000     0.0130   0 0 0 0
O00440           N02064           OUT440           20.000     0.0130   0 0 0 0
O00441           N02064           OUT441           20.000     0.0130   0 0 0 0
O00442           N02064           OUT442           20.000     0.0130   0 0 0 0
O00443           N02064           OUT443           20.000     0.0130   0 0 0 0
O00444           N02064           OUT444           20.000     0.0130   0 0 0 0
O00445           N02064           OUT445           20.000     0.0130   0 0 0 0
O00446           N02064           OUT446           20.000     0.0130   0 0 0 0
O00447           N02064           OUT447           20.000     0.0130   0 0 0 0
O00448           N02064           OUT448           20.000     0.0130   0 0 0 0
O00449           N02064           OUT449           20.000     0.0130   0 0 0 0
O00450           N02064           OUT450           20.000     0.0130   0 0 0 0
O00451           N02064           OUT451           20.000     0.0130   0 0 0 0
O00452           N02064           OUT452           20.000     0.0130   0 0 0 0
O00453           N02064           OUT453           20.000     0.0130   0 0 0 0
O00454           N02064           OUT454           20.000     0.0130   0 0 0 0
O00455           N02064           OUT455           20.000     0.0130   0 0 0 0
O00456           N02064           OUT456           20.000     0.0130   0 0 0 0
O00457           N02064           OUT457           20.000     0.0130   0 0 0 0
O00458           N02064           OUT458           20.000     0.0130   0 0 0 0
O00459           N02064           OUT459           20.000     0.0130   0 0 0 0
O00460           N02064           OUT460           20.000     0.0130   0 0 0 0
O00461           N02064           OUT461           20.000     0.0130   0 0 0 0
O00462           N02064           OUT462           20.000     0.0130   0 0 0 0
O00463           N02064           OUT463           20.000     0.0130   0 0 0 0
O00464           N02064           OUT464           20.000     0.0130   0 0 0 0
O00465           N02064           OUT465           20.000     0.0130   0 0 0 0
O00466           N02064           OUT466           20.000     0.0130   0 0 0 0
O00467           N02064           OUT467           20.000     0.0130   0 0 0 0
O00468           N02064           OUT468           20.000     0.0130   0 0 0 0
O00469           N02064           OUT469           20.000     0.0130   0 0 0 0
O00470           N02064           OUT470           20.000     0.0130   0 0 0 0
O00471           N02064           OUT471           20.000     0.0130   0 0 0 0
O00472           N02064           OUT472           20.000     0.0130   0 0 0 0
O00473           N02064           OUT473           20.000     0.0130   0 0 0 0
O00474           N02064           OUT474           20.000     0.0130   0 0 0 0
O00475           N02064           OUT475           20.000     0.0130   0 0 0 0
O00476           N02064           OUT476           20.000     0.0130   0 0 0 0
O00477           N02064           OUT477           20.000     0.0130   0 0 0 0
O00478           N02064           OUT478           20.000     0.0130   0 0 0 0
O00479           N02064           OUT479           20.000     0.0130   0 0 0 0
O00480           N02064           OUT480           20.000     0.0130   0 0 0 0
O00481           N02064           OUT481           20.000     0.0130   0 0 0 0
O00482           N02064           OUT482           20.000     0.0130   0 0 0 0
O00483           N02064           OUT483           20.000     0.0130   0 0 0 0
O00484           N02064           OUT484           20.000     0.0130   0 0 0 0
O00485           N02064           OUT485           20.000     0.0130   0 0 0 0
O00486           N02064           OUT486           20.000     0.0130   0 0 0 0
O00487           N02064           OUT487           20.000     0.0130   0 0 0 0
O00488           N02064           OUT488           20.000     0.0130   0 0 0 0
O00489           N02064           OUT489           20.000     0.0130   0 0 0 0
O00490           N02064           OUT490           20.000     0.0130   0 0 0 0
O00491           N02064           OUT491           20.000     0.0130   0 0 0 0
O00492           N02064           OUT492           20.000     0.0130   0 0 0 0
O00493           N02064           OUT493           20.000     0.0130   0 0 0 0
O00494           N02064           OUT494           20.000     0.0130   0 0 0 0
O00495           N02064           OUT495           20.000     0.0130   0 0 0 0
O00496           N02064           OUT496           20.000     0.0130   0 0 0 0
O00497           N02064           OUT497           20.000     0.0130   0 0 0 0
O00498           N02064           OUT498           20.000     0.0130   0 0 0 0
O00499           N02064           OUT499           20.000     0.0130   0 0 0 0
O00500           N02064           OUT500           20.000     0.0130   0 0 0 0
O00501           N02064           OUT501           20.000     0.0130   0 0 0 0
O00502           N02064           OUT502           20.000     0.0130   0 0 0 0
O00503           N02064           OUT503           20.000     0.0130   0 0 0 0
O00504           N02064           OUT504           20.000     0.0130   0 0 0 0
O00505           N02064           OUT505           20.000     0.0130   0 0 0 0
O00506           N02064           OUT506           20.000     0.0130   0 0 0 0
O00507           N02064           OUT507           20.000     0.0130   0 0 0 0
O00508           N02064           OUT508           20.000     0.0130   0 0 0 0
O00509           N02064           OUT509           20.000     0.0130   0 0 0 0
O00510           N02064           OUT510           20.000     0.0130   0 0 0 0
O00511           N02064           OUT511           20.000     0.0130   0 0 0 0
O00512           N02064           OUT512           20.000     0.0130   0 0 0 0

[XSECTIONS]
G00001           CIRCULAR 0.800    0 0 0 1
G00002           CIRCULAR 0.800    0 0 0 1
G00003           CIRCULAR 0.800    0 0 0 1
G00004           CIRCULAR 0.800    0 0 0 1
G00005           CIRCULAR 0.800    0 0 0 1
G00006           CIRCULAR 0.800    0 0 0 1
G00007           CIRCULAR 0.800    0 0 0 1
G00008           CIRCULAR 1.000    0 0 0 1
G00009           CIRCULAR 0.800    0 0 0 1
G00010           CIRCULAR 0.800    0 0 0 1
G00011           CIRCULAR 1.000    0 0 0 1
G00012           CIRCULAR 1.200    0 0 0 1
G00013           CIRCULAR 1.000    0 0 0 1
G00014           CIRCULAR 1.200    0 0 0 1
G00015           CIRCULAR 1.200    0 0 0 1
G00016           CIRCULAR 0.800    0 0 0 1
G00017           CIRCULAR 0.800    0 0 0 1
G00018           CIRCULAR 0.800    0 0 0 1
G00019           CIRCULAR 0.800    0 0 0 1
G00020           CIRCULAR 0.800    0 0 0 1
G00021           CIRCULAR 0.800    0 0 0 1
G00022           CIRCULAR 0.800    0 0 0 1
G00023           CIRCULAR 1.000    0 0 0 1
G00024           CIRCULAR 1.000    0 0 0 1
G00025           CIRCULAR 1.000    0 0 0 1
G00026           CIRCULAR 1.000    0 0 0 1
G00027           CIRCULAR 0.800    0 0 0 1
G00028           CIRCULAR 0.800    0 0 0 1
G00029           CIRCULAR 0.800    0 0 0 1
G00030           CIRCULAR 1.000    0 0 0 1
G00031           CIRCULAR 1.000    0 0 0 1
G00032           CIRCULAR 0.800    0 0 0 1
G00033           CIRCULAR 0.800    0 0 0 1
G00034           CIRCULAR 0.800    0 0 0 1
G00035           CIRCULAR 0.800    0 0 0 1
G00036           CIRCULAR 0.800    0 0 0 1
G00037           CIRCULAR 0.800    0 0 0 1
G00038           CIRCULAR 0.800    0 0 0 1
G00039           CIRCULAR 0.800    0 0 0 1
G00040           CIRCULAR 0.800    0 0 0 1
G00041           CIRCULAR 0.800    0 0 0 1
G00042           CIRCULAR 0.800    0 0 0 1
G00043           CIRCULAR 0.800    0 0 0 1
G00044           CIRCULAR 0.800    0 0 0 1
G00045           CIRCULAR 1.000    0 0 0 1
G00046           CIRCULAR 0.800    0 0 0 1
G00047           CIRCULAR 0.800    0 0 0 1
G00048           CIRCULAR 1.200    0 0 0 1
G00049           CIRCULAR 1.000    0 0 0 1
G00050           CIRCULAR 0.800    0 0 0 1
G00051           CIRCULAR 0.800    0 0 0 1
G00052           CIRCULAR 0.800    0 0 0 1
G00053           CIRCULAR 0.800    0 0 0 1
G00054           CIRCULAR 1.000    0 0 0 1
G00055           CIRCULAR 0.800    0 0 0 1
G00056           CIRCULAR 0.800    0 0 0 1
G00057           CIRCULAR 0.800    0 0 0 1
G00058           CIRCULAR 0.800    0 0 0 1
G00059           CIRCULAR 0.800    0 0 0 1
G00060           CIRCULAR 1.000    0 0 0 1
G00061           CIRCULAR 1.000    0 0 0 1
G00062           CIRCULAR 1.000    0 0 0 1
G00063           CIRCULAR 0.800    0 0 0 1
G00064           CIRCULAR 0.800    0 0 0 1
G00065           CIRCULAR 0.800    0 0 0 1
G00066           CIRCULAR 1.000    0 0 0 1
G00067           CIRCULAR 0.800    0 0 0 1
G00068           CIRCULAR 0.800    0 0 0 1
G00069           CIRCULAR 1.000    0 0 0 1
G00070           CIRCULAR 0.800    0 0 0 1
G00071           CIRCULAR 0.800    0 0 0 1
G00072           CIRCULAR 0.800    0 0 0 1
G00073           CIRCULAR 0.800    0 0 0 1
G00074           CIRCULAR 0.800    0 0 0 1
G00075           CIRCULAR 0.800    0 0 0 1
G00076           CIRCULAR 0.800    0 0 0 1
G00077           CIRCULAR 1.000    0 0 0 1
G00078           CIRCULAR 1.000    0 0 0 1
G00079           CIRCULAR 0.800    0 0 0 1
G00080           CIRCULAR 0.800    0 0 0 1
G00081           CIRCULAR 0.800    0 0 0 1
G00082           CIRCULAR 1.000    0 0 0 1
G00083           CIRCULAR 0.800    0 0 0 1
G00084           CIRCULAR 0.800    0 0 0 1
G00085           CIRCULAR 0.800    0 0 0 1
G00086           CIRCULAR 1.000    0 0 0 1
G00087           CIRCULAR 0.800    0 0 0 1
G00088           CIRCULAR 0.800    0 0 0 1
G00089           CIRCULAR 1.000    0 0 0 1
G00090           CIRCULAR 0.800    0 0 0 1
G00091           CIRCULAR 0.800    0 0 0 1
G00092           CIRCULAR 0.800    0 0 0 1
G00093           CIRCULAR 0.800    0 0 0 1
G00094           CIRCULAR 0.800    0 0 0 1
G00095           CIRCULAR 0.800    0 0 0 1
G00096           CIRCULAR 0.800    0 0 0 1
G00097           CIRCULAR 0.800    0 0 0 1
G00098           CIRCULAR 0.800    0 0 0 1
G00099           CIRCULAR 0.800    0 0 0 1
G00100           CIRCULAR 0.800    0 0 0 1
G00101           CIRCULAR 0.800    0 0 0 1
G00102           CIRCULAR 0.800    0 0 0 1
G00103           CIRCULAR 0.800    0 0 0 1
G00104           CIRCULAR 1.000    0 0 0 1
G00105           CIRCULAR 0.800    0 0 0 1
G00106           CIRCULAR 0.800    0 0 0 1
G00107           CIRCULAR 0.800    0 0 0 1
G00108           CIRCULAR 0.800    0 0 0 1
G00109           CIRCULAR 0.800    0 0 0 1
G00110           CIRCULAR 1.000    0 0 0 1
G00111           CIRCULAR 1.000    0 0 0 1
G00112           CIRCULAR 1.200    0 0 0 1
G00113           CIRCULAR 1.200    0 0 0 1
G00114           CIRCULAR 1.200    0 0 0 1
G00115           CIRCULAR 1.200    0 0 0 1
G00116           CIRCULAR 0.800    0 0 0 1
G00117           CIRCULAR 0.800    0 0 0 1
G00118           CIRCULAR 1.000    0 0 0 1
G00119           CIRCULAR 0.800    0 0 0 1
G00120           CIRCULAR 0.800    0 0 0 1
G00121           CIRCULAR 0.800    0 0 0 1
G00122           CIRCULAR 1.000    0 0 0 1
G00123           CIRCULAR 0.800    0 0 0 1
G00124           CIRCULAR 0.800    0 0 0 1
G00125           CIRCULAR 0.800    0 0 0 1
G00126           CIRCULAR 0.800    0 0 0 1
G00127           CIRCULAR 0.800    0 0 0 1
G00128           CIRCULAR 0.800    0 0 0 1
G00129           CIRCULAR 0.800    0 0 0 1
G00130           CIRCULAR 0.800    0 0 0 1
G00131           CIRCULAR 0.800    0 0 0 1
G00132           CIRCULAR 0.800    0 0 0 1
G00133           CIRCULAR 0.800    0 0 0 1
G00134           CIRCULAR 1.000    0 0 0 1
G00135           CIRCULAR 0.800    0 0 0 1
G00136           CIRCULAR 1.000    0 0 0 1
G00137           CIRCULAR 0.800    0 0 0 1
G00138           CIRCULAR 0.800    0 0 0 1
G00139           CIRCULAR 0.800    0 0 0 1
G00140           CIRCULAR 1.000    0 0 0 1
G00141           CIRCULAR 1.000    0 0 0 1
G00142           CIRCULAR 0.800    0 0 0 1
G00143           CIRCULAR 0.800    0 0 0 1
G00144           CIRCULAR 1.200    0 0 0 1
G00145           CIRCULAR 0.800    0 0 0 1
G00146           CIRCULAR 0.800    0 0 0 1
G00147           CIRCULAR 1.000    0 0 0 1
G00148           CIRCULAR 0.800    0 0 0 1
G00149           CIRCULAR 0.800    0 0 0 1
G00150           CIRCULAR 0.800    0 0 0 1
G00151           CIRCULAR 0.800    0 0 0 1
G00152           CIRCULAR 0.800    0 0 0 1
G00153           CIRCULAR 0.800    0 0 0 1
G00154           CIRCULAR 0.800    0 0 0 1
G00155           CIRCULAR 0.800    0 0 0 1
G00156           CIRCULAR 0.800    0 0 0 1
G00157           CIRCULAR 0.800    0 0 0 1
G00158           CIRCULAR 0.800    0 0 0 1
G00159           CIRCULAR 0.800    0 0 0 1
G00160           CIRCULAR 1.000    0 0 0 1
G00161           CIRCULAR 0.800    0 0 0 1
G00162           CIRCULAR 0.800    0 0 0 1
G00163           CIRCULAR 0.800    0 0 0 1
G00164           CIRCULAR 1.000    0 0 0 1
G00165           CIRCULAR 0.800    0 0 0 1
G00166           CIRCULAR 0.800    0 0 0 1
G00167           CIRCULAR 0.800    0 0 0 1
G00168           CIRCULAR 0.800    0 0 0 1
G00169           CIRCULAR 0.800    0 0 0 1
G00170           CIRCULAR 0.800    0 0 0 1
G00171           CIRCULAR 0.800    0 0 0 1
G00172           CIRCULAR 1.200    0 0 0 1
G00173           CIRCULAR 0.800    0 0 0 1
G00174           CIRCULAR 0.800    0 0 0 1
G00175           CIRCULAR 0.800    0 0 0 1
G00176           CIRCULAR 0.800    0 0 0 1
G00177           CIRCULAR 0.800    0 0 0 1
G00178           CIRCULAR 0.800    0 0 0 1
G00179           CIRCULAR 0.800    0 0 0 1
G00180           CIRCULAR 1.200    0 0 0 1
G00181           CIRCULAR 0.800    0 0 0 1
G00182           CIRCULAR 0.800    0 0 0 1
G00183           CIRCULAR 0.800    0 0 0 1
G00184           CIRCULAR 0.800    0 0 0 1
G00185           CIRCULAR 0.800    0 0 0 1
G00186           CIRCULAR 0.800    0 0 0 1
G00187           CIRCULAR 0.800    0 0 0 1
G00188           CIRCULAR 0.800    0 0 0 1
G00189           CIRCULAR 1.000    0 0 0 1
G00190           CIRCULAR 1.000    0 0 0 1
G00191           CIRCULAR 1.000    0 0 0 1
G00192           CIRCULAR 1.200    0 0 0 1
G00193           CIRCULAR 1.200    0 0 0 1
G00194           CIRCULAR 1.200    0 0 0 1
G00195           CIRCULAR 1.200    0 0 0 1
G00196           CIRCULAR 0.800    0 0 0 1
G00197           CIRCULAR 0.800    0 0 0 1
G00198           CIRCULAR 0.800    0 0 0 1
G00199           CIRCULAR 1.000    0 0 0 1
G00200           CIRCULAR 0.800    0 0 0 1
G00201           CIRCULAR 0.800    0 0 0 1
G00202           CIRCULAR 0.800    0 0 0 1
G00203           CIRCULAR 0.800    0 0 0 1
G00204           CIRCULAR 0.800    0 0 0 1
G00205           CIRCULAR 0.800    0 0 0 1
G00206           CIRCULAR 0.800    0 0 0 1
G00207           CIRCULAR 0.800    0 0 0 1
G00208           CIRCULAR 0.800    0 0 0 1
G00209           CIRCULAR 0.800    0 0 0 1
G00210           CIRCULAR 0.800    0 0 0 1
G00211           CIRCULAR 0.800    0 0 0 1
G00212           CIRCULAR 0.800    0 0 0 1
G00213           CIRCULAR 0.800    0 0 0 1
G00214           CIRCULAR 0.800    0 0 0 1
G00215           CIRCULAR 1.000    0 0 0 1
G00216           CIRCULAR 1.000    0 0 0 1
G00217           CIRCULAR 0.800    0 0 0 1
G00218           CIRCULAR 0.800    0 0 0 1
G00219           CIRCULAR 0.800    0 0 0 1
G00220           CIRCULAR 0.800    0 0 0 1
G00221           CIRCULAR 0.800    0 0 0 1
G00222           CIRCULAR 0.800    0 0 0 1
G00223           CIRCULAR 0.800    0 0 0 1
G00224           CIRCULAR 0.800    0 0 0 1
G00225           CIRCULAR 0.800    0 0 0 1
G00226           CIRCULAR 0.800    0 0 0 1
G00227           CIRCULAR 0.800    0 0 0 1
G00228           CIRCULAR 1.200    0 0 0 1
G00229           CIRCULAR 0.800    0 0 0 1
G00230           CIRCULAR 0.800    0 0 0 1
G00231           CIRCULAR 0.800    0 0 0 1
G00232           CIRCULAR 0.800    0 0 0 1
G00233           CIRCULAR 0.800    0 0 0 1
G00234           CIRCULAR 1.200    0 0 0 1
G00235           CIRCULAR 1.000    0 0 0 1
G00236           CIRCULAR 1.200    0 0 0 1
G00237           CIRCULAR 1.000    0 0 0 1
G00238           CIRCULAR 1.000    0 0 0 1
G00239           CIRCULAR 1.000    0 0 0 1
G00240           CIRCULAR 0.800    0 0 0 1
G00241           CIRCULAR 0.800    0 0 0 1
G00242           CIRCULAR 0.800    0 0 0 1
G00243           CIRCULAR 0.800    0 0 0 1
G00244           CIRCULAR 0.800    0 0 0 1
G00245           CIRCULAR 0.800    0 0 0 1
G00246           CIRCULAR 0.800    0 0 0 1
G00247           CIRCULAR 1.000    0 0 0 1
G00248           CIRCULAR 0.800    0 0 0 1
G00249           CIRCULAR 0.800    0 0 0 1
G00250           CIRCULAR 1.000    0 0 0 1
G00251           CIRCULAR 0.800    0 0 0 1
G00252           CIRCULAR 0.800    0 0 0 1
G00253           CIRCULAR 1.000    0 0 0 1
G00254           CIRCULAR 0.800    0 0 0 1
G00255           CIRCULAR 0.800    0 0 0 1
G00256           CIRCULAR 1.000    0 0 0 1
G00257           CIRCULAR 0.800    0 0 0 1
G00258           CIRCULAR 0.800    0 0 0 1
G00259           CIRCULAR 0.800    0 0 0 1
G00260           CIRCULAR 0.800    0 0 0 1
G00261           CIRCULAR 0.800    0 0 0 1
G00262           CIRCULAR 0.800    0 0 0 1
G00263           CIRCULAR 0.800    0 0 0 1
G00264           CIRCULAR 0.800    0 0 0 1
G00265           CIRCULAR 0.800    0 0 0 1
G00266           CIRCULAR 0.800    0 0 0 1
G00267           CIRCULAR 0.800    0 0 0 1
G00268           CIRCULAR 0.800    0 0 0 1
G00269           CIRCULAR 0.800    0 0 0 1
G00270           CIRCULAR 1.000    0 0 0 1
G00271           CIRCULAR 0.800    0 0 0 1
G00272           CIRCULAR 0.800    0 0 0 1
G00273           CIRCULAR 0.800    0 0 0 1
G00274           CIRCULAR 0.800    0 0 0 1
G00275           CIRCULAR 0.800    0 0 0 1
G00276           CIRCULAR 1.000    0 0 0 1
G00277           CIRCULAR 0.800    0 0 0 1
G00278           CIRCULAR 0.800    0 0 0 1
G00279           CIRCULAR 0.800    0 0 0 1
G00280           CIRCULAR 0.800    0 0 0 1
G00281           CIRCULAR 1.200    0 0 0 1
G00282           CIRCULAR 1.200    0 0 0 1
G00283           CIRCULAR 1.200    0 0 0 1
G00284           CIRCULAR 1.200    0 0 0 1
G00285           CIRCULAR 1.200    0 0 0 1
G00286           CIRCULAR 0.800    0 0 0 1
G00287           CIRCULAR 0.800    0 0 0 1
G00288           CIRCULAR 1.500    0 0 0 1
G00289           CIRCULAR 0.800    0 0 0 1
G00290           CIRCULAR 0.800    0 0 0 1
G00291           CIRCULAR 0.800    0 0 0 1
G00292           CIRCULAR 0.800    0 0 0 1
G00293           CIRCULAR 0.800    0 0 0 1
G00294           CIRCULAR 1.000    0 0 0 1
G00295           CIRCULAR 0.800    0 0 0 1
G00296           CIRCULAR 0.800    0 0 0 1
G00297           CIRCULAR 0.800    0 0 0 1
G00298           CIRCULAR 0.800    0 0 0 1
G00299           CIRCULAR 0.800    0 0 0 1
G00300           CIRCULAR 0.800    0 0 0 1
G00301           CIRCULAR 1.000    0 0 0 1
G00302           CIRCULAR 1.000    0 0 0 1
G00303           CIRCULAR 0.800    0 0 0 1
G00304           CIRCULAR 0.800    0 0 0 1
G00305           CIRCULAR 1.000    0 0 0 1
G00306           CIRCULAR 0.800    0 0 0 1
G00307           CIRCULAR 0.800    0 0 0 1
G00308           CIRCULAR 0.800    0 0 0 1
G00309           CIRCULAR 0.800    0 0 0 1
G00310           CIRCULAR 1.000    0 0 0 1
G00311           CIRCULAR 1.200    0 0 0 1
G00312           CIRCULAR 1.200    0 0 0 1
G00313           CIRCULAR 0.800    0 0 0 1
G00314           CIRCULAR 0.800    0 0 0 1
G00315           CIRCULAR 1.200    0 0 0 1
G00316           CIRCULAR 1.200    0 0 0 1
G00317           CIRCULAR 0.800    0 0 0 1
G00318           CIRCULAR 0.800    0 0 0 1
G00319           CIRCULAR 1.200    0 0 0 1
G00320           CIRCULAR 0.800    0 0 0 1
G00321           CIRCULAR 0.800    0 0 0 1
G00322           CIRCULAR 0.800    0 0 0 1
G00323           CIRCULAR 1.000    0 0 0 1
G00324           CIRCULAR 1.000    0 0 0 1
G00325           CIRCULAR 0.800    0 0 0 1
G00326           CIRCULAR 1.000    0 0 0 1
G00327           CIRCULAR 1.000    0 0 0 1
G00328           CIRCULAR 1.000    0 0 0 1
G00329           CIRCULAR 1.000    0 0 0 1
G00330           CIRCULAR 1.200    0 0 0 1
G00331           CIRCULAR 0.800    0 0 0 1
G00332           CIRCULAR 0.800    0 0 0 1
G00333           CIRCULAR 1.000    0 0 0 1
G00334           CIRCULAR 1.000    0 0 0 1
G00335           CIRCULAR 0.800    0 0 0 1
G00336           CIRCULAR 0.800    0 0 0 1
G00337           CIRCULAR 0.800    0 0 0 1
G00338           CIRCULAR 0.800    0 0 0 1
G00339           CIRCULAR 0.800    0 0 0 1
G00340           CIRCULAR 0.800    0 0 0 1
G00341           CIRCULAR 0.800    0 0 0 1
G00342           CIRCULAR 0.800    0 0 0 1
G00343           CIRCULAR 0.800    0 0 0 1
G00344           CIRCULAR 0.800    0 0 0 1
G00345           CIRCULAR 0.800    0 0 0 1
G00346           CIRCULAR 0.800    0 0 0 1
G00347           CIRCULAR 0.800    0 0 0 1
G00348           CIRCULAR 0.800    0 0 0 1
G00349           CIRCULAR 0.800    0 0 0 1
G00350           CIRCULAR 0.800    0 0 0 1
G00351           CIRCULAR 0.800    0 0 0 1
G00352           CIRCULAR 0.800    0 0 0 1
G00353           CIRCULAR 0.800    0 0 0 1
G00354           CIRCULAR 0.800    0 0 0 1
G00355           CIRCULAR 0.800    0 0 0 1
G00356           CIRCULAR 0.800    0 0 0 1
G00357           CIRCULAR 0.800    0 0 0 1
G00358           CIRCULAR 0.800    0 0 0 1
G00359           CIRCULAR 0.800    0 0 0 1
G00360           CIRCULAR 0.800    0 0 0 1
G00361           CIRCULAR 0.800    0 0 0 1
G00362           CIRCULAR 0.800    0 0 0 1
G00363           CIRCULAR 0.800    0 0 0 1
G00364           CIRCULAR 0.800    0 0 0 1
G00365           CIRCULAR 0.800    0 0 0 1
G00366           CIRCULAR 0.800    0 0 0 1
G00367           CIRCULAR 0.800    0 0 0 1
G00368           CIRCULAR 0.800    0 0 0 1
G00369           CIRCULAR 0.800    0 0 0 1
G00370           CIRCULAR 0.800    0 0 0 1
G00371           CIRCULAR 0.800    0 0 0 1
G00372           CIRCULAR 0.800    0 0 0 1
G00373           CIRCULAR 0.800    0 0 0 1
G00374           CIRCULAR 1.000    0 0 0 1
G00375           CIRCULAR 0.800    0 0 0 1
G00376           CIRCULAR 0.800    0 0 0 1
G00377           CIRCULAR 0.800    0 0 0 1
G00378           CIRCULAR 1.000    0 0 0 1
G00379           CIRCULAR 0.800    0 0 0 1
G00380           CIRCULAR 0.800    0 0 0 1
G00381           CIRCULAR 0.800    0 0 0 1
G00382           CIRCULAR 1.000    0 0 0 1
G00383           CIRCULAR 1.000    0 0 0 1
G00384           CIRCULAR 0.800    0 0 0 1
G00385           CIRCULAR 0.800    0 0 0 1
G00386           CIRCULAR 0.800    0 0 0 1
G00387           CIRCULAR 1.000    0 0 0 1
G00388           CIRCULAR 1.000    0 0 0 1
G00389           CIRCULAR 1.000    0 0 0 1
G00390           CIRCULAR 0.800    0 0 0 1
G00391           CIRCULAR 0.800    0 0 0 1
G00392           CIRCULAR 0.800    0 0 0 1
G00393           CIRCULAR 0.800    0 0 0 1
G00394           CIRCULAR 0.800    0 0 0 1
G00395           CIRCULAR 0.800    0 0 0 1
G00396           CIRCULAR 0.800    0 0 0 1
G00397           CIRCULAR 0.800    0 0 0 1
G00398           CIRCULAR 1.000    0 0 0 1
G00399           CIRCULAR 1.000    0 0 0 1
G00400           CIRCULAR 1.000    0 0 0 1
G00401           CIRCULAR 0.800    0 0 0 1
G00402           CIRCULAR 0.800    0 0 0 1
G00403           CIRCULAR 1.000    0 0 0 1
G00404           CIRCULAR 0.800    0 0 0 1
G00405           CIRCULAR 0.800    0 0 0 1
G00406           CIRCULAR 0.800    0 0 0 1
G00407           CIRCULAR 0.800    0 0 0 1
G00408           CIRCULAR 0.800    0 0 0 1
G00409           CIRCULAR 0.800    0 0 0 1
G00410           CIRCULAR 0.800    0 0 0 1
G00411           CIRCULAR 0.800    0 0 0 1
G00412           CIRCULAR 0.800    0 0 0 1
G00413           CIRCULAR 0.800    0 0 0 1
G00414           CIRCULAR 0.800    0 0 0 1
G00415           CIRCULAR 0.800    0 0 0 1
G00416           CIRCULAR 0.800    0 0 0 1
G00417           CIRCULAR 0.800    0 0 0 1
G00418           CIRCULAR 1.000    0 0 0 1
G00419           CIRCULAR 0.800    0 0 0 1
G00420           CIRCULAR 0.800    0 0 0 1
G00421           CIRCULAR 0.800    0 0 0 1
G00422           CIRCULAR 0.800    0 0 0 1
G00423           CIRCULAR 1.200    0 0 0 1
G00424           CIRCULAR 0.800    0 0 0 1
G00425           CIRCULAR 1.000    0 0 0 1
G00426           CIRCULAR 1.000    0 0 0 1
G00427           CIRCULAR 0.800    0 0 0 1
G00428           CIRCULAR 0.800    0 0 0 1
G00429           CIRCULAR 0.800    0 0 0 1
G00430           CIRCULAR 0.800    0 0 0 1
G00431           CIRCULAR 0.800    0 0 0 1
G00432           CIRCULAR 0.800    0 0 0 1
G00433           CIRCULAR 1.000    0 0 0 1
G00434           CIRCULAR 1.000    0 0 0 1
G00435           CIRCULAR 0.800    0 0 0 1
G00436           CIRCULAR 0.800    0 0 0 1
G00437           CIRCULAR 0.800    0 0 0 1
G00438           CIRCULAR 0.800    0 0 0 1
G00439           CIRCULAR 0.800    0 0 0 1
G00440           CIRCULAR 0.800    0 0 0 1
G00441           CIRCULAR 1.000    0 0 0 1
G00442           CIRCULAR 1.000    0 0 0 1
G00443           CIRCULAR 1.200    0 0 0 1
G00444           CIRCULAR 1.200    0 0 0 1
G00445           CIRCULAR 0.800    0 0 0 1
G00446           CIRCULAR 0.800    0 0 0 1
G00447           CIRCULAR 1.000    0 0 0 1
G00448           CIRCULAR 0.800    0 0 0 1
G00449           CIRCULAR 0.800    0 0 0 1
G00450           CIRCULAR 0.800    0 0 0 1
G00451           CIRCULAR 0.800    0 0 0 1
G00452           CIRCULAR 0.800    0 0 0 1
G00453           CIRCULAR 0.800    0 0 0 1
G00454           CIRCULAR 0.800    0 0 0 1
G00455           CIRCULAR 0.800    0 0 0 1
G00456           CIRCULAR 0.800    0 0 0 1
G00457           CIRCULAR 0.800    0 0 0 1
G00458           CIRCULAR 0.800    0 0 0 1
G00459           CIRCULAR 0.800    0 0 0 1
G00460           CIRCULAR 0.800    0 0 0 1
G00461           CIRCULAR 0.800    0 0 0 1
G00462           CIRCULAR 1.000    0 0 0 1
G00463           CIRCULAR 1.000    0 0 0 1
G00464           CIRCULAR 0.800    0 0 0 1
G00465           CIRCULAR 0.800    0 0 0 1
G00466           CIRCULAR 1.000    0 0 0 1
G00467           CIRCULAR 1.000    0 0 0 1
G00468           CIRCULAR 0.800    0 0 0 1
G00469           CIRCULAR 0.800    0 0 0 1
G00470           CIRCULAR 0.800    0 0 0 1
G00471           CIRCULAR 0.800    0 0 0 1
G00472           CIRCULAR 0.800    0 0 0 1
G00473           CIRCULAR 0.800    0 0 0 1
G00474           CIRCULAR 0.800    0 0 0 1
G00475           CIRCULAR 0.800    0 0 0 1
G00476           CIRCULAR 0.800    0 0 0 1
G00477           CIRCULAR 0.800    0 0 0 1
G00478           CIRCULAR 0.800    0 0 0 1
G00479           CIRCULAR 0.800    0 0 0 1
G00480           CIRCULAR 1.000    0 0 0 1
G00481           CIRCULAR 0.800    0 0 0 1
G00482           CIRCULAR 0.800    0 0 0 1
G00483           CIRCULAR 0.800    0 0 0 1
G00484           CIRCULAR 0.800    0 0 0 1
G00485           CIRCULAR 0.800    0 0 0 1
G00486           CIRCULAR 0.800    0 0 0 1
G00487           CIRCULAR 0.800    0 0 0 1
G00488           CIRCULAR 1.000    0 0 0 1
G00489           CIRCULAR 1.000    0 0 0 1
G00490           CIRCULAR 1.200    0 0 0 1
G00491           CIRCULAR 0.800    0 0 0 1
G00492           CIRCULAR 0.800    0 0 0 1
G00493           CIRCULAR 1.000    0 0 0 1
G00494           CIRCULAR 0.800    0 0 0 1
G00495           CIRCULAR 0.800    0 0 0 1
G00496           CIRCULAR 0.800    0 0 0 1
G00497           CIRCULAR 1.000    0 0 0 1
G00498           CIRCULAR 1.000    0 0 0 1
G00499           CIRCULAR 1.000    0 0 0 1
G00500           CIRCULAR 1.000    0 0 0 1
G00501           CIRCULAR 0.800    0 0 0 1
G00502           CIRCULAR 1.200    0 0 0 1
G00503           CIRCULAR 1.200    0 0 0 1
G00504           CIRCULAR 1.200    0 0 0 1
G00505           CIRCULAR 0.800    0 0 0 1
G00506           CIRCULAR 1.200    0 0 0 1
G00507           CIRCULAR 1.200    0 0 0 1
G00508           CIRCULAR 1.000    0 0 0 1
G00509           CIRCULAR 1.000    0 0 0 1
G00510           CIRCULAR 1.000    0 0 0 1
G00511           CIRCULAR 1.000    0 0 0 1
G00512           CIRCULAR 1.000    0 0 0 1
G00513           CIRCULAR 0.800    0 0 0 1
G00514           CIRCULAR 0.800    0 0 0 1
G00515           CIRCULAR 0.800    0 0 0 1
G00516           CIRCULAR 0.800    0 0 0 1
G00517           CIRCULAR 0.800    0 0 0 1
G00518           CIRCULAR 0.800    0 0 0 1
G00519           CIRCULAR 0.800    0 0 0 1
G00520           CIRCULAR 0.800    0 0 0 1
G00521           CIRCULAR 0.800    0 0 0 1
G00522           CIRCULAR 0.800    0 0 0 1
G00523           CIRCULAR 1.200    0 0 0 1
G00524           CIRCULAR 0.800    0 0 0 1
G00525           CIRCULAR 0.800    0 0 0 1
G00526           CIRCULAR 0.800    0 0 0 1
G00527           CIRCULAR 0.800    0 0 0 1
G00528           CIRCULAR 0.800    0 0 0 1
G00529           CIRCULAR 0.800    0 0 0 1
G00530           CIRCULAR 0.800    0 0 0 1
G00531           CIRCULAR 0.800    0 0 0 1
G00532           CIRCULAR 1.000    0 0 0 1
G00533           CIRCULAR 0.800    0 0 0 1
G00534           CIRCULAR 0.800    0 0 0 1
G00535           CIRCULAR 0.800    0 0 0 1
G00536           CIRCULAR 0.800    0 0 0 1
G00537           CIRCULAR 0.800    0 0 0 1
G00538           CIRCULAR 1.000    0 0 0 1
G00539           CIRCULAR 0.800    0 0 0 1
G00540           CIRCULAR 0.800    0 0 0 1
G00541           CIRCULAR 1.200    0 0 0 1
G00542           CIRCULAR 0.800    0 0 0 1
G00543           CIRCULAR 0.800    0 0 0 1
G00544           CIRCULAR 1.200    0 0 0 1
G00545           CIRCULAR 1.200    0 0 0 1
G00546           CIRCULAR 0.800    0 0 0 1
G00547           CIRCULAR 0.800    0 0 0 1
G00548           CIRCULAR 1.000    0 0 0 1
G00549           CIRCULAR 1.200    0 0 0 1
G00550           CIRCULAR 1.200    0 0 0 1
G00551           CIRCULAR 1.200    0 0 0 1
G00552           CIRCULAR 1.200    0 0 0 1
G00553           CIRCULAR 1.200    0 0 0 1
G00554           CIRCULAR 0.800    0 0 0 1
G00555           CIRCULAR 0.800    0 0 0 1
G00556           CIRCULAR 1.000    0 0 0 1
G00557           CIRCULAR 0.800    0 0 0 1
G00558           CIRCULAR 0.800    0 0 0 1
G00559           CIRCULAR 1.000    0 0 0 1
G00560           CIRCULAR 0.800    0 0 0 1
G00561           CIRCULAR 1.000    0 0 0 1
G00562           CIRCULAR 0.800    0 0 0 1
G00563           CIRCULAR 0.800    0 0 0 1
G00564           CIRCULAR 0.800    0 0 0 1
G00565           CIRCULAR 0.800    0 0 0 1
G00566           CIRCULAR 0.800    0 0 0 1
G00567           CIRCULAR 0.800    0 0 0 1
G00568           CIRCULAR 1.200    0 0 0 1
G00569           CIRCULAR 1.000    0 0 0 1
G00570           CIRCULAR 1.000    0 0 0 1
G00571           CIRCULAR 1.200    0 0 0 1
G00572           CIRCULAR 1.200    0 0 0 1
G00573           CIRCULAR 0.800    0 0 0 1
G00574           CIRCULAR 0.800    0 0 0 1
G00575           CIRCULAR 0.800    0 0 0 1
G00576           CIRCULAR 0.800    0 0 0 1
G00577           CIRCULAR 0.800    0 0 0 1
G00578           CIRCULAR 1.200    0 0 0 1
G00579           CIRCULAR 0.800    0 0 0 1
G00580           CIRCULAR 0.800    0 0 0 1
G00581           CIRCULAR 0.800    0 0 0 1
G00582           CIRCULAR 0.800    0 0 0 1
G00583           CIRCULAR 0.800    0 0 0 1
G00584           CIRCULAR 0.800    0 0 0 1
G00585           CIRCULAR 0.800    0 0 0 1
G00586           CIRCULAR 1.000    0 0 0 1
G00587           CIRCULAR 0.800    0 0 0 1
G00588           CIRCULAR 0.800    0 0 0 1
G00589           CIRCULAR 0.800    0 0 0 1
G00590           CIRCULAR 0.800    0 0 0 1
G00591           CIRCULAR 0.800    0 0 0 1
G00592           CIRCULAR 1.000    0 0 0 1
G00593           CIRCULAR 0.800    0 0 0 1
G00594           CIRCULAR 0.800    0 0 0 1
G00595           CIRCULAR 0.800    0 0 0 1
G00596           CIRCULAR 0.800    0 0 0 1
G00597           CIRCULAR 1.000    0 0 0 1
G00598           CIRCULAR 1.000    0 0 0 1
G00599           CIRCULAR 0.800    0 0 0 1
G00600           CIRCULAR 0.800    0 0 0 1
G00601           CIRCULAR 0.800    0 0 0 1
G00602           CIRCULAR 0.800    0 0 0 1
G00603           CIRCULAR 1.000    0 0 0 1
G00604           CIRCULAR 0.800    0 0 0 1
G00605           CIRCULAR 0.800    0 0 0 1
G00606           CIRCULAR 1.000    0 0 0 1
G00607           CIRCULAR 0.800    0 0 0 1
G00608           CIRCULAR 0.800    0 0 0 1
G00609           CIRCULAR 0.800    0 0 0 1
G00610           CIRCULAR 0.800    0 0 0 1
G00611           CIRCULAR 0.800    0 0 0 1
G00612           CIRCULAR 1.000    0 0 0 1
G00613           CIRCULAR 0.800    0 0 0 1
G00614           CIRCULAR 0.800    0 0 0 1
G00615           CIRCULAR 0.800    0 0 0 1
G00616           CIRCULAR 0.800    0 0 0 1
G00617           CIRCULAR 0.800    0 0 0 1
G00618           CIRCULAR 0.800    0 0 0 1
G00619           CIRCULAR 1.000    0 0 0 1
G00620           CIRCULAR 0.800    0 0 0 1
G00621           CIRCULAR 1.000    0 0 0 1
G00622           CIRCULAR 1.000    0 0 0 1
G00623           CIRCULAR 0.800    0 0 0 1
G00624           CIRCULAR 0.800    0 0 0 1
G00625           CIRCULAR 0.800    0 0 0 1
G00626           CIRCULAR 0.800    0 0 0 1
G00627           CIRCULAR 0.800    0 0 0 1
G00628           CIRCULAR 1.000    0 0 0 1
G00629           CIRCULAR 0.800    0 0 0 1
G00630           CIRCULAR 0.800    0 0 0 1
G00631           CIRCULAR 0.800    0 0 0 1
G00632           CIRCULAR 0.800    0 0 0 1
G00633           CIRCULAR 0.800    0 0 0 1
G00634           CIRCULAR 0.800    0 0 0 1
G00635           CIRCULAR 0.800    0 0 0 1
G00636           CIRCULAR 0.800    0 0 0 1
G00637           CIRCULAR 0.800    0 0 0 1
G00638           CIRCULAR 0.800    0 0 0 1
G00639           CIRCULAR 0.800    0 0 0 1
G00640           CIRCULAR 0.800    0 0 0 1
G00641           CIRCULAR 0.800    0 0 0 1
G00642           CIRCULAR 1.200    0 0 0 1
G00643           CIRCULAR 1.200    0 0 0 1
G00644           CIRCULAR 1.500    0 0 0 1
G00645           CIRCULAR 1.200    0 0 0 1
G00646           CIRCULAR 0.800    0 0 0 1
G00647           CIRCULAR 1.000    0 0 0 1
G00648           CIRCULAR 0.800    0 0 0 1
G00649           CIRCULAR 0.800    0 0 0 1
G00650           CIRCULAR 0.800    0 0 0 1
G00651           CIRCULAR 0.800    0 0 0 1
G00652           CIRCULAR 0.800    0 0 0 1
G00653           CIRCULAR 1.000    0 0 0 1
G00654           CIRCULAR 1.000    0 0 0 1
G00655           CIRCULAR 1.000    0 0 0 1
G00656           CIRCULAR 0.800    0 0 0 1
G00657           CIRCULAR 0.800    0 0 0 1
G00658           CIRCULAR 1.000    0 0 0 1
G00659           CIRCULAR 0.800    0 0 0 1
G00660           CIRCULAR 0.800    0 0 0 1
G00661           CIRCULAR 0.800    0 0 0 1
G00662           CIRCULAR 0.800    0 0 0 1
G00663           CIRCULAR 0.800    0 0 0 1
G00664           CIRCULAR 0.800    0 0 0 1
G00665           CIRCULAR 1.000    0 0 0 1
G00666           CIRCULAR 0.800    0 0 0 1
G00667           CIRCULAR 0.800    0 0 0 1
G00668           CIRCULAR 0.800    0 0 0 1
G00669           CIRCULAR 0.800    0 0 0 1
G00670           CIRCULAR 0.800    0 0 0 1
G00671           CIRCULAR 0.800    0 0 0 1
G00672           CIRCULAR 0.800    0 0 0 1
G00673           CIRCULAR 1.000    0 0 0 1
G00674           CIRCULAR 0.800    0 0 0 1
G00675           CIRCULAR 1.200    0 0 0 1
G00676           CIRCULAR 1.000    0 0 0 1
G00677           CIRCULAR 0.800    0 0 0 1
G00678           CIRCULAR 0.800    0 0 0 1
G00679           CIRCULAR 0.800    0 0 0 1
G00680           CIRCULAR 0.800    0 0 0 1
G00681           CIRCULAR 0.800    0 0 0 1
G00682           CIRCULAR 0.800    0 0 0 1
G00683           CIRCULAR 0.800    0 0 0 1
G00684           CIRCULAR 0.800    0 0 0 1
G00685           CIRCULAR 1.000    0 0 0 1
G00686           CIRCULAR 0.800    0 0 0 1
G00687           CIRCULAR 0.800    0 0 0 1
G00688           CIRCULAR 0.800    0 0 0 1
G00689           CIRCULAR 1.000    0 0 0 1
G00690           CIRCULAR 1.000    0 0 0 1
G00691           CIRCULAR 1.000    0 0 0 1
G00692           CIRCULAR 0.800    0 0 0 1
G00693           CIRCULAR 1.000    0 0 0 1
G00694           CIRCULAR 1.000    0 0 0 1
G00695           CIRCULAR 1.000    0 0 0 1
G00696           CIRCULAR 1.000    0 0 0 1
G00697           CIRCULAR 0.800    0 0 0 1
G00698           CIRCULAR 0.800    0 0 0 1
G00699           CIRCULAR 0.800    0 0 0 1
G00700           CIRCULAR 0.800    0 0 0 1
G00701           CIRCULAR 0.800    0 0 0 1
G00702           CIRCULAR 1.000    0 0 0 1
G00703           CIRCULAR 0.800    0 0 0 1
G00704           CIRCULAR 0.800    0 0 0 1
G00705           CIRCULAR 0.800    0 0 0 1
G00706           CIRCULAR 0.800    0 0 0 1
G00707           CIRCULAR 1.000    0 0 0 1
G00708           CIRCULAR 0.800    0 0 0 1
G00709           CIRCULAR 0.800    0 0 0 1
G00710           CIRCULAR 0.800    0 0 0 1
G00711           CIRCULAR 0.800    0 0 0 1
G00712           CIRCULAR 0.800    0 0 0 1
G00713           CIRCULAR 0.800    0 0 0 1
G00714           CIRCULAR 0.800    0 0 0 1
G00715           CIRCULAR 0.800    0 0 0 1
G00716           CIRCULAR 1.200    0 0 0 1
G00717           CIRCULAR 0.800    0 0 0 1
G00718           CIRCULAR 0.800    0 0 0 1
G00719           CIRCULAR 0.800    0 0 0 1
G00720           CIRCULAR 0.800    0 0 0 1
G00721           CIRCULAR 0.800    0 0 0 1
G00722           CIRCULAR 0.800    0 0 0 1
G00723           CIRCULAR 1.000    0 0 0 1
G00724           CIRCULAR 0.800    0 0 0 1
G00725           CIRCULAR 0.800    0 0 0 1
G00726           CIRCULAR 0.800    0 0 0 1
G00727           CIRCULAR 1.000    0 0 0 1
G00728           CIRCULAR 0.800    0 0 0 1
G00729           CIRCULAR 0.800    0 0 0 1
G00730           CIRCULAR 1.200    0 0 0 1
G00731           CIRCULAR 1.200    0 0 0 1
G00732           CIRCULAR 0.800    0 0 0 1
G00733           CIRCULAR 0.800    0 0 0 1
G00734           CIRCULAR 0.800    0 0 0 1
G00735           CIRCULAR 0.800    0 0 0 1
G00736           CIRCULAR 0.800    0 0 0 1
G00737           CIRCULAR 0.800    0 0 0 1
G00738           CIRCULAR 0.800    0 0 0 1
G00739           CIRCULAR 0.800    0 0 0 1
G00740           CIRCULAR 0.800    0 0 0 1
G00741           CIRCULAR 0.800    0 0 0 1
G00742           CIRCULAR 0.800    0 0 0 1
G00743           CIRCULAR 0.800    0 0 0 1
G00744           CIRCULAR 0.800    0 0 0 1
G00745           CIRCULAR 1.000    0 0 0 1
G00746           CIRCULAR 0.800    0 0 0 1
G00747           CIRCULAR 0.800    0 0 0 1
G00748           CIRCULAR 1.200    0 0 0 1
G00749           CIRCULAR 0.800    0 0 0 1
G00750           CIRCULAR 1.200    0 0 0 1
G00751           CIRCULAR 0.800    0 0 0 1
G00752           CIRCULAR 0.800    0 0 0 1
G00753           CIRCULAR 0.800    0 0 0 1
G00754           CIRCULAR 0.800    0 0 0 1
G00755           CIRCULAR 0.800    0 0 0 1
G00756           CIRCULAR 0.800    0 0 0 1
G00757           CIRCULAR 0.800    0 0 0 1
G00758           CIRCULAR 0.800    0 0 0 1
G00759           CIRCULAR 0.800    0 0 0 1
G00760           CIRCULAR 0.800    0 0 0 1
G00761           CIRCULAR 1.000    0 0 0 1
G00762           CIRCULAR 0.800    0 0 0 1
G00763           CIRCULAR 0.800    0 0 0 1
G00764           CIRCULAR 0.800    0 0 0 1
G00765           CIRCULAR 0.800    0 0 0 1
G00766           CIRCULAR 0.800    0 0 0 1
G00767           CIRCULAR 1.000    0 0 0 1
G00768           CIRCULAR 0.800    0 0 0 1
G00769           CIRCULAR 0.800    0 0 0 1
G00770           CIRCULAR 0.800    0 0 0 1
G00771           CIRCULAR 0.800    0 0 0 1
G00772           CIRCULAR 0.800    0 0 0 1
G00773           CIRCULAR 1.000    0 0 0 1
G00774           CIRCULAR 0.800    0 0 0 1
G00775           CIRCULAR 0.800    0 0 0 1
G00776           CIRCULAR 0.800    0 0 0 1
G00777           CIRCULAR 0.800    0 0 0 1
G00778           CIRCULAR 0.800    0 0 0 1
G00779           CIRCULAR 1.000    0 0 0 1
G00780           CIRCULAR 0.800    0 0 0 1
G00781           CIRCULAR 0.800    0 0 0 1
G00782           CIRCULAR 1.000    0 0 0 1
G00783           CIRCULAR 0.800    0 0 0 1
G00784           CIRCULAR 0.800    0 0 0 1
G00785           CIRCULAR 0.800    0 0 0 1
G00786           CIRCULAR 0.800    0 0 0 1
G00787           CIRCULAR 0.800    0 0 0 1
G00788           CIRCULAR 0.800    0 0 0 1
G00789           CIRCULAR 0.800    0 0 0 1
G00790           CIRCULAR 0.800    0 0 0 1
G00791           CIRCULAR 1.200    0 0 0 1
G00792           CIRCULAR 1.200    0 0 0 1
G00793           CIRCULAR 1.200    0 0 0 1
G00794           CIRCULAR 0.800    0 0 0 1
G00795           CIRCULAR 0.800    0 0 0 1
G00796           CIRCULAR 0.800    0 0 0 1
G00797           CIRCULAR 0.800    0 0 0 1
G00798           CIRCULAR 1.000    0 0 0 1
G00799           CIRCULAR 0.800    0 0 0 1
G00800           CIRCULAR 1.000    0 0 0 1
G00801           CIRCULAR 1.000    0 0 0 1
G00802           CIRCULAR 0.800    0 0 0 1
G00803           CIRCULAR 0.800    0 0 0 1
G00804           CIRCULAR 0.800    0 0 0 1
G00805           CIRCULAR 1.000    0 0 0 1
G00806           CIRCULAR 0.800    0 0 0 1
G00807           CIRCULAR 0.800    0 0 0 1
G00808           CIRCULAR 0.800    0 0 0 1
G00809           CIRCULAR 0.800    0 0 0 1
G00810           CIRCULAR 0.800    0 0 0 1
G00811           CIRCULAR 0.800    0 0 0 1
G00812           CIRCULAR 0.800    0 0 0 1
G00813           CIRCULAR 1.000    0 0 0 1
G00814           CIRCULAR 1.000    0 0 0 1
G00815           CIRCULAR 1.000    0 0 0 1
G00816           CIRCULAR 0.800    0 0 0 1
G00817           CIRCULAR 0.800    0 0 0 1
G00818           CIRCULAR 0.800    0 0 0 1
G00819           CIRCULAR 1.200    0 0 0 1
G00820           CIRCULAR 0.800    0 0 0 1
G00821           CIRCULAR 1.000    0 0 0 1
G00822           CIRCULAR 1.000    0 0 0 1
G00823           CIRCULAR 1.000    0 0 0 1
G00824           CIRCULAR 1.000    0 0 0 1
G00825           CIRCULAR 0.800    0 0 0 1
G00826           CIRCULAR 0.800    0 0 0 1
G00827           CIRCULAR 0.800    0 0 0 1
G00828           CIRCULAR 0.800    0 0 0 1
G00829           CIRCULAR 0.800    0 0 0 1
G00830           CIRCULAR 0.800    0 0 0 1
G00831           CIRCULAR 1.000    0 0 0 1
G00832           CIRCULAR 0.800    0 0 0 1
G00833           CIRCULAR 0.800    0 0 0 1
G00834           CIRCULAR 1.000    0 0 0 1
G00835           CIRCULAR 1.000    0 0 0 1
G00836           CIRCULAR 0.800    0 0 0 1
G00837           CIRCULAR 0.800    0 0 0 1
G00838           CIRCULAR 0.800    0 0 0 1
G00839           CIRCULAR 0.800    0 0 0 1
G00840           CIRCULAR 1.000    0 0 0 1
G00841           CIRCULAR 1.200    0 0 0 1
G00842           CIRCULAR 1.200    0 0 0 1
G00843           CIRCULAR 1.000    0 0 0 1
G00844           CIRCULAR 0.800    0 0 0 1
G00845           CIRCULAR 0.800    0 0 0 1
G00846           CIRCULAR 0.800    0 0 0 1
G00847           CIRCULAR 1.200    0 0 0 1
G00848           CIRCULAR 0.800    0 0 0 1
G00849           CIRCULAR 0.800    0 0 0 1
G00850           CIRCULAR 0.800    0 0 0 1
G00851           CIRCULAR 0.800    0 0 0 1
G00852           CIRCULAR 0.800    0 0 0 1
G00853           CIRCULAR 0.800    0 0 0 1
G00854           CIRCULAR 0.800    0 0 0 1
G00855           CIRCULAR 0.800    0 0 0 1
G00856           CIRCULAR 0.800    0 0 0 1
G00857           CIRCULAR 1.200    0 0 0 1
G00858           CIRCULAR 0.800    0 0 0 1
G00859           CIRCULAR 1.200    0 0 0 1
G00860           CIRCULAR 1.200    0 0 0 1
G00861           CIRCULAR 1.200    0 0 0 1
G00862           CIRCULAR 0.800    0 0 0 1
G00863           CIRCULAR 0.800    0 0 0 1
G00864           CIRCULAR 0.800    0 0 0 1
G00865           CIRCULAR 0.800    0 0 0 1
G00866           CIRCULAR 0.800    0 0 0 1
G00867           CIRCULAR 0.800    0 0 0 1
G00868           CIRCULAR 0.800    0 0 0 1
G00869           CIRCULAR 0.800    0 0 0 1
G00870           CIRCULAR 1.200    0 0 0 1
G00871           CIRCULAR 1.200    0 0 0 1
G00872           CIRCULAR 0.800    0 0 0 1
G00873           CIRCULAR 0.800    0 0 0 1
G00874           CIRCULAR 0.800    0 0 0 1
G00875           CIRCULAR 0.800    0 0 0 1
G00876           CIRCULAR 0.800    0 0 0 1
G00877           CIRCULAR 0.800    0 0 0 1
G00878           CIRCULAR 1.000    0 0 0 1
G00879           CIRCULAR 0.800    0 0 0 1
G00880           CIRCULAR 1.000    0 0 0 1
G00881           CIRCULAR 0.800    0 0 0 1
G00882           CIRCULAR 0.800    0 0 0 1
G00883           CIRCULAR 0.800    0 0 0 1
G00884           CIRCULAR 0.800    0 0 0 1
G00885           CIRCULAR 0.800    0 0 0 1
G00886           CIRCULAR 0.800    0 0 0 1
G00887           CIRCULAR 0.800    0 0 0 1
G00888           CIRCULAR 1.000    0 0 0 1
G00889           CIRCULAR 0.800    0 0 0 1
G00890           CIRCULAR 0.800    0 0 0 1
G00891           CIRCULAR 0.800    0 0 0 1
G00892           CIRCULAR 0.800    0 0 0 1
G00893           CIRCULAR 0.800    0 0 0 1
G00894           CIRCULAR 0.800    0 0 0 1
G00895           CIRCULAR 0.800    0 0 0 1
G00896           CIRCULAR 1.200    0 0 0 1
G00897           CIRCULAR 0.800    0 0 0 1
G00898           CIRCULAR 0.800    0 0 0 1
G00899           CIRCULAR 0.800    0 0 0 1
G00900           CIRCULAR 0.800    0 0 0 1
G00901           CIRCULAR 1.200    0 0 0 1
G00902           CIRCULAR 0.800    0 0 0 1
G00903           CIRCULAR 0.800    0 0 0 1
G00904           CIRCULAR 0.800    0 0 0 1
G00905           CIRCULAR 0.800    0 0 0 1
G00906           CIRCULAR 0.800    0 0 0 1
G00907           CIRCULAR 0.800    0 0 0 1
G00908           CIRCULAR 0.800    0 0 0 1
G00909           CIRCULAR 0.800    0 0 0 1
G00910           CIRCULAR 0.800    0 0 0 1
G00911           CIRCULAR 0.800    0 0 0 1
G00912           CIRCULAR 0.800    0 0 0 1
G00913           CIRCULAR 1.000    0 0 0 1
G00914           CIRCULAR 1.200    0 0 0 1
G00915           CIRCULAR 0.800    0 0 0 1
G00916           CIRCULAR 0.800    0 0 0 1
G00917           CIRCULAR 0.800    0 0 0 1
G00918           CIRCULAR 0.800    0 0 0 1
G00919           CIRCULAR 0.800    0 0 0 1
G00920           CIRCULAR 0.800    0 0 0 1
G00921           CIRCULAR 0.800    0 0 0 1
G00922           CIRCULAR 0.800    0 0 0 1
G00923           CIRCULAR 1.000    0 0 0 1
G00924           CIRCULAR 1.000    0 0 0 1
G00925           CIRCULAR 1.000    0 0 0 1
G00926           CIRCULAR 0.800    0 0 0 1
G00927           CIRCULAR 0.800    0 0 0 1
G00928           CIRCULAR 0.800    0 0 0 1
G00929           CIRCULAR 0.800    0 0 0 1
G00930           CIRCULAR 0.800    0 0 0 1
G00931           CIRCULAR 0.800    0 0 0 1
G00932           CIRCULAR 0.800    0 0 0 1
G00933           CIRCULAR 0.800    0 0 0 1
G00934           CIRCULAR 0.800    0 0 0 1
G00935           CIRCULAR 1.200    0 0 0 1
G00936           CIRCULAR 1.200    0 0 0 1
G00937           CIRCULAR 0.800    0 0 0 1
G00938           CIRCULAR 0.800    0 0 0 1
G00939           CIRCULAR 0.800    0 0 0 1
G00940           CIRCULAR 1.000    0 0 0 1
G00941           CIRCULAR 1.000    0 0 0 1
G00942           CIRCULAR 1.000    0 0 0 1
G00943           CIRCULAR 1.200    0 0 0 1
G00944           CIRCULAR 0.800    0 0 0 1
G00945           CIRCULAR 0.800    0 0 0 1
G00946           CIRCULAR 0.800    0 0 0 1
G00947           CIRCULAR 0.800    0 0 0 1
G00948           CIRCULAR 0.800    0 0 0 1
G00949           CIRCULAR 0.800    0 0 0 1
G00950           CIRCULAR 0.800    0 0 0 1
G00951           CIRCULAR 0.800    0 0 0 1
G00952           CIRCULAR 1.000    0 0 0 1
G00953           CIRCULAR 0.800    0 0 0 1
G00954           CIRCULAR 0.800    0 0 0 1
G00955           CIRCULAR 0.800    0 0 0 1
G00956           CIRCULAR 0.800    0 0 0 1
G00957           CIRCULAR 0.800    0 0 0 1
G00958           CIRCULAR 0.800    0 0 0 1
G00959           CIRCULAR 0.800    0 0 0 1
G00960           CIRCULAR 0.800    0 0 0 1
G00961           CIRCULAR 0.800    0 0 0 1
G00962           CIRCULAR 0.800    0 0 0 1
G00963           CIRCULAR 1.200    0 0 0 1
G00964           CIRCULAR 1.200    0 0 0 1
G00965           CIRCULAR 1.200    0 0 0 1
G00966           CIRCULAR 0.800    0 0 0 1
G00967           CIRCULAR 1.200    0 0 0 1
G00968           CIRCULAR 1.000    0 0 0 1
G00969           CIRCULAR 0.800    0 0 0 1
G00970           CIRCULAR 0.800    0 0 0 1
G00971           CIRCULAR 0.800    0 0 0 1
G00972           CIRCULAR 0.800    0 0 0 1
G00973           CIRCULAR 0.800    0 0 0 1
G00974           CIRCULAR 0.800    0 0 0 1
G00975           CIRCULAR 0.800    0 0 0 1
G00976           CIRCULAR 0.800    0 0 0 1
G00977           CIRCULAR 0.800    0 0 0 1
G00978           CIRCULAR 0.800    0 0 0 1
G00979           CIRCULAR 0.800    0 0 0 1
G00980           CIRCULAR 0.800    0 0 0 1
G00981           CIRCULAR 0.800    0 0 0 1
G00982           CIRCULAR 0.800    0 0 0 1
G00983           CIRCULAR 0.800    0 0 0 1
G00984           CIRCULAR 0.800    0 0 0 1
G00985           CIRCULAR 1.000    0 0 0 1
G00986           CIRCULAR 1.000    0 0 0 1
G00987           CIRCULAR 0.800    0 0 0 1
G00988           CIRCULAR 0.800    0 0 0 1
G00989           CIRCULAR 0.800    0 0 0 1
G00990           CIRCULAR 0.800    0 0 0 1
G00991           CIRCULAR 0.800    0 0 0 1
G00992           CIRCULAR 0.800    0 0 0 1
G00993           CIRCULAR 0.800    0 0 0 1
G00994           CIRCULAR 0.800    0 0 0 1
G00995           CIRCULAR 0.800    0 0 0 1
G00996           CIRCULAR 0.800    0 0 0 1
G00997           CIRCULAR 0.800    0 0 0 1
G00998           CIRCULAR 0.800    0 0 0 1
G00999           CIRCULAR 0.800    0 0 0 1
G01000           CIRCULAR 0.800    0 0 0 1
G01001           CIRCULAR 0.800    0 0 0 1
G01002           CIRCULAR 0.800    0 0 0 1
G01003           CIRCULAR 0.800    0 0 0 1
G01004           CIRCULAR 0.800    0 0 0 1
G01005           CIRCULAR 1.200    0 0 0 1
G01006           CIRCULAR 1.200    0 0 0 1
G01007           CIRCULAR 0.800    0 0 0 1
G01008           CIRCULAR 0.800    0 0 0 1
G01009           CIRCULAR 1.000    0 0 0 1
G01010           CIRCULAR 1.200    0 0 0 1
G01011           CIRCULAR 0.800    0 0 0 1
G01012           CIRCULAR 1.000    0 0 0 1
G01013           CIRCULAR 0.800    0 0 0 1
G01014           CIRCULAR 0.800    0 0 0 1
G01015           CIRCULAR 0.800    0 0 0 1
G01016           CIRCULAR 0.800    0 0 0 1
G01017           CIRCULAR 0.800    0 0 0 1
G01018           CIRCULAR 0.800    0 0 0 1
G01019           CIRCULAR 0.800    0 0 0 1
G01020           CIRCULAR 1.000    0 0 0 1
G01021           CIRCULAR 0.800    0 0 0 1
G01022           CIRCULAR 0.800    0 0 0 1
G01023           CIRCULAR 0.800    0 0 0 1
G01024           CIRCULAR 1.000    0 0 0 1
G01025           CIRCULAR 1.000    0 0 0 1
G01026           CIRCULAR 0.800    0 0 0 1
G01027           CIRCULAR 0.800    0 0 0 1
G01028           CIRCULAR 1.000    0 0 0 1
G01029           CIRCULAR 0.800    0 0 0 1
G01030           CIRCULAR 0.800    0 0 0 1
G01031           CIRCULAR 0.800    0 0 0 1
G01032           CIRCULAR 0.800    0 0 0 1
G01033           CIRCULAR 0.800    0 0 0 1
G01034           CIRCULAR 0.800    0 0 0 1
G01035           CIRCULAR 0.800    0 0 0 1
G01036           CIRCULAR 0.800    0 0 0 1
G01037           CIRCULAR 0.800    0 0 0 1
G01038           CIRCULAR 1.000    0 0 0 1
G01039           CIRCULAR 0.800    0 0 0 1
G01040           CIRCULAR 0.800    0 0 0 1
G01041           CIRCULAR 0.800    0 0 0 1
G01042           CIRCULAR 0.800    0 0 0 1
G01043           CIRCULAR 0.800    0 0 0 1
G01044           CIRCULAR 1.500    0 0 0 1
G01045           CIRCULAR 1.500    0 0 0 1
G01046           CIRCULAR 1.500    0 0 0 1
G01047           CIRCULAR 1.500    0 0 0 1
G01048           CIRCULAR 1.200    0 0 0 1
G01049           CIRCULAR 0.800    0 0 0 1
G01050           CIRCULAR 0.800    0 0 0 1
G01051           CIRCULAR 1.000    0 0 0 1
G01052           CIRCULAR 0.800    0 0 0 1
G01053           CIRCULAR 0.800    0 0 0 1
G01054           CIRCULAR 1.000    0 0 0 1
G01055           CIRCULAR 0.800    0 0 0 1
G01056           CIRCULAR 0.800    0 0 0 1
G01057           CIRCULAR 1.000    0 0 0 1
G01058           CIRCULAR 0.800    0 0 0 1
G01059           CIRCULAR 0.800    0 0 0 1
G01060           CIRCULAR 0.800    0 0 0 1
G01061           CIRCULAR 1.500    0 0 0 1
G01062           CIRCULAR 0.800    0 0 0 1
G01063           CIRCULAR 1.000    0 0 0 1
G01064           CIRCULAR 0.800    0 0 0 1
G01065           CIRCULAR 0.800    0 0 0 1
G01066           CIRCULAR 0.800    0 0 0 1
G01067           CIRCULAR 0.800    0 0 0 1
G01068           CIRCULAR 0.800    0 0 0 1
G01069           CIRCULAR 0.800    0 0 0 1
G01070           CIRCULAR 0.800    0 0 0 1
G01071           CIRCULAR 0.800    0 0 0 1
G01072           CIRCULAR 0.800    0 0 0 1
G01073           CIRCULAR 1.000    0 0 0 1
G01074           CIRCULAR 0.800    0 0 0 1
G01075           CIRCULAR 0.800    0 0 0 1
G01076           CIRCULAR 0.800    0 0 0 1
G01077           CIRCULAR 0.800    0 0 0 1
G01078           CIRCULAR 1.000    0 0 0 1
G01079           CIRCULAR 1.000    0 0 0 1
G01080           CIRCULAR 0.800    0 0 0 1
G01081           CIRCULAR 0.800    0 0 0 1
G01082           CIRCULAR 0.800    0 0 0 1
G01083           CIRCULAR 0.800    0 0 0 1
G01084           CIRCULAR 1.000    0 0 0 1
G01085           CIRCULAR 1.000    0 0 0 1
G01086           CIRCULAR 0.800    0 0 0 1
G01087           CIRCULAR 1.200    0 0 0 1
G01088           CIRCULAR 0.800    0 0 0 1
G01089           CIRCULAR 1.000    0 0 0 1
G01090           CIRCULAR 1.000    0 0 0 1
G01091           CIRCULAR 0.800    0 0 0 1
G01092           CIRCULAR 0.800    0 0 0 1
G01093           CIRCULAR 0.800    0 0 0 1
G01094           CIRCULAR 0.800    0 0 0 1
G01095           CIRCULAR 0.800    0 0 0 1
G01096           CIRCULAR 0.800    0 0 0 1
G01097           CIRCULAR 0.800    0 0 0 1
G01098           CIRCULAR 0.800    0 0 0 1
G01099           CIRCULAR 0.800    0 0 0 1
G01100           CIRCULAR 0.800    0 0 0 1
G01101           CIRCULAR 0.800    0 0 0 1
G01102           CIRCULAR 0.800    0 0 0 1
G01103           CIRCULAR 0.800    0 0 0 1
G01104           CIRCULAR 1.500    0 0 0 1
G01105           CIRCULAR 1.200    0 0 0 1
G01106           CIRCULAR 1.200    0 0 0 1
G01107           CIRCULAR 0.800    0 0 0 1
G01108           CIRCULAR 0.800    0 0 0 1
G01109           CIRCULAR 0.800    0 0 0 1
G01110           CIRCULAR 1.000    0 0 0 1
G01111           CIRCULAR 0.800    0 0 0 1
G01112           CIRCULAR 0.800    0 0 0 1
G01113           CIRCULAR 0.800    0 0 0 1
G01114           CIRCULAR 0.800    0 0 0 1
G01115           CIRCULAR 0.800    0 0 0 1
G01116           CIRCULAR 0.800    0 0 0 1
G01117           CIRCULAR 0.800    0 0 0 1
G01118           CIRCULAR 0.800    0 0 0 1
G01119           CIRCULAR 0.800    0 0 0 1
G01120           CIRCULAR 0.800    0 0 0 1
G01121           CIRCULAR 0.800    0 0 0 1
G01122           CIRCULAR 0.800    0 0 0 1
G01123           CIRCULAR 0.800    0 0 0 1
G01124           CIRCULAR 0.800    0 0 0 1
G01125           CIRCULAR 0.800    0 0 0 1
G01126           CIRCULAR 0.800    0 0 0 1
G01127           CIRCULAR 1.500    0 0 0 1
G01128           CIRCULAR 1.500    0 0 0 1
G01129           CIRCULAR 1.500    0 0 0 1
G01130           CIRCULAR 0.800    0 0 0 1
G01131           CIRCULAR 1.200    0 0 0 1
G01132           CIRCULAR 1.200    0 0 0 1
G01133           CIRCULAR 0.800    0 0 0 1
G01134           CIRCULAR 0.800    0 0 0 1
G01135           CIRCULAR 0.800    0 0 0 1
G01136           CIRCULAR 0.800    0 0 0 1
G01137           CIRCULAR 0.800    0 0 0 1
G01138           CIRCULAR 0.800    0 0 0 1
G01139           CIRCULAR 1.000    0 0 0 1
G01140           CIRCULAR 0.800    0 0 0 1
G01141           CIRCULAR 1.200    0 0 0 1
G01142           CIRCULAR 1.500    0 0 0 1
G01143           CIRCULAR 0.800    0 0 0 1
G01144           CIRCULAR 1.500    0 0 0 1
G01145           CIRCULAR 0.800    0 0 0 1
G01146           CIRCULAR 0.800    0 0 0 1
G01147           CIRCULAR 0.800    0 0 0 1
G01148           CIRCULAR 1.200    0 0 0 1
G01149           CIRCULAR 0.800    0 0 0 1
G01150           CIRCULAR 0.800    0 0 0 1
G01151           CIRCULAR 0.800    0 0 0 1
G01152           CIRCULAR 0.800    0 0 0 1
G01153           CIRCULAR 0.800    0 0 0 1
G01154           CIRCULAR 0.800    0 0 0 1
G01155           CIRCULAR 0.800    0 0 0 1
G01156           CIRCULAR 0.800    0 0 0 1
G01157           CIRCULAR 0.800    0 0 0 1
G01158           CIRCULAR 0.800    0 0 0 1
G01159           CIRCULAR 1.000    0 0 0 1
G01160           CIRCULAR 0.800    0 0 0 1
G01161           CIRCULAR 1.200    0 0 0 1
G01162           CIRCULAR 1.200    0 0 0 1
G01163           CIRCULAR 1.200    0 0 0 1
G01164           CIRCULAR 1.000    0 0 0 1
G01165           CIRCULAR 0.800    0 0 0 1
G01166           CIRCULAR 0.800    0 0 0 1
G01167           CIRCULAR 0.800    0 0 0 1
G01168           CIRCULAR 0.800    0 0 0 1
G01169           CIRCULAR 0.800    0 0 0 1
G01170           CIRCULAR 1.000    0 0 0 1
G01171           CIRCULAR 0.800    0 0 0 1
G01172           CIRCULAR 1.000    0 0 0 1
G01173           CIRCULAR 0.800    0 0 0 1
G01174           CIRCULAR 0.800    0 0 0 1
G01175           CIRCULAR 0.800    0 0 0 1
G01176           CIRCULAR 0.800    0 0 0 1
G01177           CIRCULAR 0.800    0 0 0 1
G01178           CIRCULAR 0.800    0 0 0 1
G01179           CIRCULAR 1.200    0 0 0 1
G01180           CIRCULAR 1.200    0 0 0 1
G01181           CIRCULAR 0.800    0 0 0 1
G01182           CIRCULAR 0.800    0 0 0 1
G01183           CIRCULAR 0.800    0 0 0 1
G01184           CIRCULAR 1.000    0 0 0 1
G01185           CIRCULAR 0.800    0 0 0 1
G01186           CIRCULAR 0.800    0 0 0 1
G01187           CIRCULAR 0.800    0 0 0 1
G01188           CIRCULAR 0.800    0 0 0 1
G01189           CIRCULAR 1.200    0 0 0 1
G01190           CIRCULAR 0.800    0 0 0 1
G01191           CIRCULAR 0.800    0 0 0 1
G01192           CIRCULAR 0.800    0 0 0 1
G01193           CIRCULAR 0.800    0 0 0 1
G01194           CIRCULAR 0.800    0 0 0 1
G01195           CIRCULAR 0.800    0 0 0 1
G01196           CIRCULAR 0.800    0 0 0 1
G01197           CIRCULAR 0.800    0 0 0 1
G01198           CIRCULAR 0.800    0 0 0 1
G01199           CIRCULAR 1.200    0 0 0 1
G01200           CIRCULAR 1.200    0 0 0 1
G01201           CIRCULAR 0.800    0 0 0 1
G01202           CIRCULAR 0.800    0 0 0 1
G01203           CIRCULAR 0.800    0 0 0 1
G01204           CIRCULAR 1.000    0 0 0 1
G01205           CIRCULAR 0.800    0 0 0 1
G01206           CIRCULAR 0.800    0 0 0 1
G01207           CIRCULAR 1.000    0 0 0 1
G01208           CIRCULAR 1.000    0 0 0 1
G01209           CIRCULAR 1.000    0 0 0 1
G01210           CIRCULAR 0.800    0 0 0 1
G01211           CIRCULAR 0.800    0 0 0 1
G01212           CIRCULAR 0.800    0 0 0 1
G01213           CIRCULAR 0.800    0 0 0 1
G01214           CIRCULAR 1.000    0 0 0 1
G01215           CIRCULAR 1.000    0 0 0 1
G01216           CIRCULAR 1.000    0 0 0 1
G01217           CIRCULAR 0.800    0 0 0 1
G01218           CIRCULAR 0.800    0 0 0 1
G01219           CIRCULAR 0.800    0 0 0 1
G01220           CIRCULAR 0.800    0 0 0 1
G01221           CIRCULAR 0.800    0 0 0 1
G01222           CIRCULAR 0.800    0 0 0 1
G01223           CIRCULAR 0.800    0 0 0 1
G01224           CIRCULAR 0.800    0 0 0 1
G01225           CIRCULAR 0.800    0 0 0 1
G01226           CIRCULAR 0.800    0 0 0 1
G01227           CIRCULAR 0.800    0 0 0 1
G01228           CIRCULAR 0.800    0 0 0 1
G01229           CIRCULAR 0.800    0 0 0 1
G01230           CIRCULAR 0.800    0 0 0 1
G01231           CIRCULAR 0.800    0 0 0 1
G01232           CIRCULAR 0.800    0 0 0 1
G01233           CIRCULAR 1.000    0 0 0 1
G01234           CIRCULAR 1.000    0 0 0 1
G01235           CIRCULAR 0.800    0 0 0 1
G01236           CIRCULAR 0.800    0 0 0 1
G01237           CIRCULAR 0.800    0 0 0 1
G01238           CIRCULAR 0.800    0 0 0 1
G01239           CIRCULAR 0.800    0 0 0 1
G01240           CIRCULAR 0.800    0 0 0 1
G01241           CIRCULAR 0.800    0 0 0 1
G01242           CIRCULAR 0.800    0 0 0 1
G01243           CIRCULAR 0.800    0 0 0 1
G01244           CIRCULAR 0.800    0 0 0 1
G01245           CIRCULAR 1.000    0 0 0 1
G01246           CIRCULAR 0.800    0 0 0 1
G01247           CIRCULAR 0.800    0 0 0 1
G01248           CIRCULAR 0.800    0 0 0 1
G01249           CIRCULAR 0.800    0 0 0 1
G01250           CIRCULAR 0.800    0 0 0 1
G01251           CIRCULAR 1.200    0 0 0 1
G01252           CIRCULAR 0.800    0 0 0 1
G01253           CIRCULAR 0.800    0 0 0 1
G01254           CIRCULAR 1.000    0 0 0 1
G01255           CIRCULAR 1.000    0 0 0 1
G01256           CIRCULAR 0.800    0 0 0 1
G01257           CIRCULAR 0.800    0 0 0 1
G01258           CIRCULAR 1.200    0 0 0 1
G01259           CIRCULAR 0.800    0 0 0 1
G01260           CIRCULAR 0.800    0 0 0 1
G01261           CIRCULAR 0.800    0 0 0 1
G01262           CIRCULAR 0.800    0 0 0 1
G01263           CIRCULAR 0.800    0 0 0 1
G01264           CIRCULAR 0.800    0 0 0 1
G01265           CIRCULAR 0.800    0 0 0 1
G01266           CIRCULAR 0.800    0 0 0 1
G01267           CIRCULAR 0.800    0 0 0 1
G01268           CIRCULAR 0.800    0 0 0 1
G01269           CIRCULAR 0.800    0 0 0 1
G01270           CIRCULAR 0.800    0 0 0 1
G01271           CIRCULAR 0.800    0 0 0 1
G01272           CIRCULAR 1.000    0 0 0 1
G01273           CIRCULAR 1.000    0 0 0 1
G01274           CIRCULAR 1.000    0 0 0 1
G01275           CIRCULAR 1.000    0 0 0 1
G01276           CIRCULAR 0.800    0 0 0 1
G01277           CIRCULAR 0.800    0 0 0 1
G01278           CIRCULAR 0.800    0 0 0 1
G01279           CIRCULAR 1.000    0 0 0 1
G01280           CIRCULAR 0.800    0 0 0 1
G01281           CIRCULAR 0.800    0 0 0 1
G01282           CIRCULAR 0.800    0 0 0 1
G01283           CIRCULAR 1.000    0 0 0 1
G01284           CIRCULAR 0.800    0 0 0 1
G01285           CIRCULAR 0.800    0 0 0 1
G01286           CIRCULAR 0.800    0 0 0 1
G01287           CIRCULAR 0.800    0 0 0 1
G01288           CIRCULAR 0.800    0 0 0 1
G01289           CIRCULAR 1.000    0 0 0 1
G01290           CIRCULAR 1.000    0 0 0 1
G01291           CIRCULAR 1.000    0 0 0 1
G01292           CIRCULAR 0.800    0 0 0 1
G01293           CIRCULAR 0.800    0 0 0 1
G01294           CIRCULAR 0.800    0 0 0 1
G01295           CIRCULAR 0.800    0 0 0 1
G01296           CIRCULAR 0.800    0 0 0 1
G01297           CIRCULAR 0.800    0 0 0 1
G01298           CIRCULAR 0.800    0 0 0 1
G01299           CIRCULAR 1.500    0 0 0 1
G01300           CIRCULAR 0.800    0 0 0 1
G01301           CIRCULAR 0.800    0 0 0 1
G01302           CIRCULAR 0.800    0 0 0 1
G01303           CIRCULAR 0.800    0 0 0 1
G01304           CIRCULAR 0.800    0 0 0 1
G01305           CIRCULAR 0.800    0 0 0 1
G01306           CIRCULAR 0.800    0 0 0 1
G01307           CIRCULAR 0.800    0 0 0 1
G01308           CIRCULAR 0.800    0 0 0 1
G01309           CIRCULAR 0.800    0 0 0 1
G01310           CIRCULAR 0.800    0 0 0 1
G01311           CIRCULAR 0.800    0 0 0 1
G01312           CIRCULAR 0.800    0 0 0 1
G01313           CIRCULAR 0.800    0 0 0 1
G01314           CIRCULAR 0.800    0 0 0 1
G01315           CIRCULAR 0.800    0 0 0 1
G01316           CIRCULAR 0.800    0 0 0 1
G01317           CIRCULAR 0.800    0 0 0 1
G01318           CIRCULAR 0.800    0 0 0 1
G01319           CIRCULAR 0.800    0 0 0 1
G01320           CIRCULAR 0.800    0 0 0 1
G01321           CIRCULAR 1.200    0 0 0 1
G01322           CIRCULAR 1.200    0 0 0 1
G01323           CIRCULAR 0.800    0 0 0 1
G01324           CIRCULAR 0.800    0 0 0 1
G01325           CIRCULAR 0.800    0 0 0 1
G01326           CIRCULAR 0.800    0 0 0 1
G01327           CIRCULAR 0.800    0 0 0 1
G01328           CIRCULAR 0.800    0 0 0 1
G01329           CIRCULAR 0.800    0 0 0 1
G01330           CIRCULAR 0.800    0 0 0 1
G01331           CIRCULAR 0.800    0 0 0 1
G01332           CIRCULAR 0.800    0 0 0 1
G01333           CIRCULAR 1.000    0 0 0 1
G01334           CIRCULAR 0.800    0 0 0 1
G01335           CIRCULAR 1.000    0 0 0 1
G01336           CIRCULAR 0.800    0 0 0 1
G01337           CIRCULAR 0.800    0 0 0 1
G01338           CIRCULAR 0.800    0 0 0 1
G01339           CIRCULAR 1.200    0 0 0 1
G01340           CIRCULAR 1.200    0 0 0 1
G01341           CIRCULAR 1.000    0 0 0 1
G01342           CIRCULAR 1.000    0 0 0 1
G01343           CIRCULAR 0.800    0 0 0 1
G01344           CIRCULAR 0.800    0 0 0 1
G01345           CIRCULAR 0.800    0 0 0 1
G01346           CIRCULAR 0.800    0 0 0 1
G01347           CIRCULAR 0.800    0 0 0 1
G01348           CIRCULAR 0.800    0 0 0 1
G01349           CIRCULAR 0.800    0 0 0 1
G01350           CIRCULAR 0.800    0 0 0 1
G01351           CIRCULAR 0.800    0 0 0 1
G01352           CIRCULAR 0.800    0 0 0 1
G01353           CIRCULAR 0.800    0 0 0 1
G01354           CIRCULAR 0.800    0 0 0 1
G01355           CIRCULAR 0.800    0 0 0 1
G01356           CIRCULAR 1.200    0 0 0 1
G01357           CIRCULAR 0.800    0 0 0 1
G01358           CIRCULAR 1.000    0 0 0 1
G01359           CIRCULAR 0.800    0 0 0 1
G01360           CIRCULAR 0.800    0 0 0 1
G01361           CIRCULAR 0.800    0 0 0 1
G01362           CIRCULAR 1.000    0 0 0 1
G01363           CIRCULAR 0.800    0 0 0 1
G01364           CIRCULAR 1.000    0 0 0 1
G01365           CIRCULAR 1.000    0 0 0 1
G01366           CIRCULAR 0.800    0 0 0 1
G01367           CIRCULAR 0.800    0 0 0 1
G01368           CIRCULAR 0.800    0 0 0 1
G01369           CIRCULAR 1.200    0 0 0 1
G01370           CIRCULAR 1.500    0 0 0 1
G01371           CIRCULAR 0.800    0 0 0 1
G01372           CIRCULAR 0.800    0 0 0 1
G01373           CIRCULAR 0.800    0 0 0 1
G01374           CIRCULAR 0.800    0 0 0 1
G01375           CIRCULAR 0.800    0 0 0 1
G01376           CIRCULAR 0.800    0 0 0 1
G01377           CIRCULAR 0.800    0 0 0 1
G01378           CIRCULAR 0.800    0 0 0 1
G01379           CIRCULAR 0.800    0 0 0 1
G01380           CIRCULAR 0.800    0 0 0 1
G01381           CIRCULAR 0.800    0 0 0 1
G01382           CIRCULAR 0.800    0 0 0 1
G01383           CIRCULAR 0.800    0 0 0 1
G01384           CIRCULAR 0.800    0 0 0 1
G01385           CIRCULAR 0.800    0 0 0 1
G01386           CIRCULAR 0.800    0 0 0 1
G01387           CIRCULAR 0.800    0 0 0 1
G01388           CIRCULAR 0.800    0 0 0 1
G01389           CIRCULAR 1.000    0 0 0 1
G01390           CIRCULAR 0.800    0 0 0 1
G01391           CIRCULAR 0.800    0 0 0 1
G01392           CIRCULAR 1.000    0 0 0 1
G01393           CIRCULAR 0.800    0 0 0 1
G01394           CIRCULAR 0.800    0 0 0 1
G01395           CIRCULAR 0.800    0 0 0 1
G01396           CIRCULAR 0.800    0 0 0 1
G01397           CIRCULAR 0.800    0 0 0 1
G01398           CIRCULAR 0.800    0 0 0 1
G01399           CIRCULAR 1.000    0 0 0 1
G01400           CIRCULAR 1.200    0 0 0 1
G01401           CIRCULAR 1.500    0 0 0 1
G01402           CIRCULAR 0.800    0 0 0 1
G01403           CIRCULAR 0.800    0 0 0 1
G01404           CIRCULAR 0.800    0 0 0 1
G01405           CIRCULAR 0.800    0 0 0 1
G01406           CIRCULAR 0.800    0 0 0 1
G01407           CIRCULAR 0.800    0 0 0 1
G01408           CIRCULAR 0.800    0 0 0 1
G01409           CIRCULAR 0.800    0 0 0 1
G01410           CIRCULAR 1.200    0 0 0 1
G01411           CIRCULAR 0.800    0 0 0 1
G01412           CIRCULAR 0.800    0 0 0 1
G01413           CIRCULAR 1.200    0 0 0 1
G01414           CIRCULAR 1.200    0 0 0 1
G01415           CIRCULAR 0.800    0 0 0 1
G01416           CIRCULAR 1.200    0 0 0 1
G01417           CIRCULAR 1.200    0 0 0 1
G01418           CIRCULAR 0.800    0 0 0 1
G01419           CIRCULAR 0.800    0 0 0 1
G01420           CIRCULAR 0.800    0 0 0 1
G01421           CIRCULAR 0.800    0 0 0 1
G01422           CIRCULAR 0.800    0 0 0 1
G01423           CIRCULAR 0.800    0 0 0 1
G01424           CIRCULAR 0.800    0 0 0 1
G01425           CIRCULAR 1.200    0 0 0 1
G01426           CIRCULAR 0.800    0 0 0 1
G01427           CIRCULAR 1.200    0 0 0 1
G01428           CIRCULAR 0.800    0 0 0 1
G01429           CIRCULAR 0.800    0 0 0 1
G01430           CIRCULAR 0.800    0 0 0 1
G01431           CIRCULAR 0.800    0 0 0 1
G01432           CIRCULAR 0.800    0 0 0 1
G01433           CIRCULAR 0.800    0 0 0 1
G01434           CIRCULAR 0.800    0 0 0 1
G01435           CIRCULAR 0.800    0 0 0 1
G01436           CIRCULAR 1.000    0 0 0 1
G01437           CIRCULAR 0.800    0 0 0 1
G01438           CIRCULAR 0.800    0 0 0 1
G01439           CIRCULAR 0.800    0 0 0 1
G01440           CIRCULAR 0.800    0 0 0 1
G01441           CIRCULAR 1.000    0 0 0 1
G01442           CIRCULAR 0.800    0 0 0 1
G01443           CIRCULAR 1.000    0 0 0 1
G01444           CIRCULAR 1.000    0 0 0 1
G01445           CIRCULAR 0.800    0 0 0 1
G01446           CIRCULAR 1.200    0 0 0 1
G01447           CIRCULAR 1.200    0 0 0 1
G01448           CIRCULAR 1.200    0 0 0 1
G01449           CIRCULAR 0.800    0 0 0 1
G01450           CIRCULAR 1.200    0 0 0 1
G01451           CIRCULAR 0.800    0 0 0 1
G01452           CIRCULAR 0.800    0 0 0 1
G01453           CIRCULAR 0.800    0 0 0 1
G01454           CIRCULAR 0.800    0 0 0 1
G01455           CIRCULAR 0.800    0 0 0 1
G01456           CIRCULAR 1.000    0 0 0 1
G01457           CIRCULAR 0.800    0 0 0 1
G01458           CIRCULAR 0.800    0 0 0 1
G01459           CIRCULAR 0.800    0 0 0 1
G01460           CIRCULAR 0.800    0 0 0 1
G01461           CIRCULAR 0.800    0 0 0 1
G01462           CIRCULAR 0.800    0 0 0 1
G01463           CIRCULAR 0.800    0 0 0 1
G01464           CIRCULAR 0.800    0 0 0 1
G01465           CIRCULAR 0.800    0 0 0 1
G01466           CIRCULAR 0.800    0 0 0 1
G01467           CIRCULAR 1.000    0 0 0 1
G01468           CIRCULAR 0.800    0 0 0 1
G01469           CIRCULAR 0.800    0 0 0 1
G01470           CIRCULAR 1.200    0 0 0 1
G01471           CIRCULAR 0.800    0 0 0 1
G01472           CIRCULAR 1.200    0 0 0 1
G01473           CIRCULAR 1.200    0 0 0 1
G01474           CIRCULAR 0.800    0 0 0 1
G01475           CIRCULAR 0.800    0 0 0 1
G01476           CIRCULAR 0.800    0 0 0 1
G01477           CIRCULAR 0.800    0 0 0 1
G01478           CIRCULAR 0.800    0 0 0 1
G01479           CIRCULAR 0.800    0 0 0 1
G01480           CIRCULAR 0.800    0 0 0 1
G01481           CIRCULAR 0.800    0 0 0 1
G01482           CIRCULAR 1.200    0 0 0 1
G01483           CIRCULAR 0.800    0 0 0 1
G01484           CIRCULAR 0.800    0 0 0 1
G01485           CIRCULAR 0.800    0 0 0 1
G01486           CIRCULAR 0.800    0 0 0 1
G01487           CIRCULAR 0.800    0 0 0 1
G01488           CIRCULAR 1.200    0 0 0 1
G01489           CIRCULAR 0.800    0 0 0 1
G01490           CIRCULAR 0.800    0 0 0 1
G01491           CIRCULAR 0.800    0 0 0 1
G01492           CIRCULAR 0.800    0 0 0 1
G01493           CIRCULAR 1.000    0 0 0 1
G01494           CIRCULAR 1.000    0 0 0 1
G01495           CIRCULAR 0.800    0 0 0 1
G01496           CIRCULAR 0.800    0 0 0 1
G01497           CIRCULAR 0.800    0 0 0 1
G01498           CIRCULAR 0.800    0 0 0 1
G01499           CIRCULAR 0.800    0 0 0 1
G01500           CIRCULAR 0.800    0 0 0 1
G01501           CIRCULAR 0.800    0 0 0 1
G01502           CIRCULAR 1.000    0 0 0 1
G01503           CIRCULAR 0.800    0 0 0 1
G01504           CIRCULAR 0.800    0 0 0 1
G01505           CIRCULAR 0.800    0 0 0 1
G01506           CIRCULAR 0.800    0 0 0 1
G01507           CIRCULAR 0.800    0 0 0 1
G01508           CIRCULAR 1.000    0 0 0 1
G01509           CIRCULAR 0.800    0 0 0 1
G01510           CIRCULAR 0.800    0 0 0 1
G01511           CIRCULAR 0.800    0 0 0 1
G01512           CIRCULAR 0.800    0 0 0 1
G01513           CIRCULAR 0.800    0 0 0 1
G01514           CIRCULAR 0.800    0 0 0 1
G01515           CIRCULAR 0.800    0 0 0 1
G01516           CIRCULAR 0.800    0 0 0 1
G01517           CIRCULAR 0.800    0 0 0 1
G01518           CIRCULAR 0.800    0 0 0 1
G01519           CIRCULAR 1.200    0 0 0 1
G01520           CIRCULAR 1.200    0 0 0 1
G01521           CIRCULAR 0.800    0 0 0 1
G01522           CIRCULAR 0.800    0 0 0 1
G01523           CIRCULAR 0.800    0 0 0 1
G01524           CIRCULAR 1.000    0 0 0 1
G01525           CIRCULAR 0.800    0 0 0 1
G01526           CIRCULAR 0.800    0 0 0 1
G01527           CIRCULAR 1.200    0 0 0 1
G01528           CIRCULAR 0.800    0 0 0 1
G01529           CIRCULAR 0.800    0 0 0 1
G01530           CIRCULAR 0.800    0 0 0 1
G01531           CIRCULAR 1.200    0 0 0 1
G01532           CIRCULAR 1.000    0 0 0 1
G01533           CIRCULAR 0.800    0 0 0 1
G01534           CIRCULAR 0.800    0 0 0 1
G01535           CIRCULAR 0.800    0 0 0 1
G01536           CIRCULAR 0.800    0 0 0 1
G01537           CIRCULAR 0.800    0 0 0 1
G01538           CIRCULAR 0.800    0 0 0 1
G01539           CIRCULAR 0.800    0 0 0 1
G01540           CIRCULAR 0.800    0 0 0 1
G01541           CIRCULAR 1.000    0 0 0 1
G01542           CIRCULAR 1.000    0 0 0 1
G01543           CIRCULAR 0.800    0 0 0 1
G01544           CIRCULAR 0.800    0 0 0 1
G01545           CIRCULAR 0.800    0 0 0 1
G01546           CIRCULAR 0.800    0 0 0 1
G01547           CIRCULAR 0.800    0 0 0 1
G01548           CIRCULAR 0.800    0 0 0 1
G01549           CIRCULAR 0.800    0 0 0 1
G01550           CIRCULAR 0.800    0 0 0 1
G01551           CIRCULAR 0.800    0 0 0 1
G01552           CIRCULAR 0.800    0 0 0 1
G01553           CIRCULAR 0.800    0 0 0 1
G01554           CIRCULAR 0.800    0 0 0 1
G01555           CIRCULAR 1.000    0 0 0 1
G01556           CIRCULAR 0.800    0 0 0 1
G01557           CIRCULAR 0.800    0 0 0 1
G01558           CIRCULAR 0.800    0 0 0 1
G01559           CIRCULAR 0.800    0 0 0 1
G01560           CIRCULAR 0.800    0 0 0 1
G01561           CIRCULAR 0.800    0 0 0 1
G01562           CIRCULAR 0.800    0 0 0 1
G01563           CIRCULAR 0.800    0 0 0 1
G01564           CIRCULAR 0.800    0 0 0 1
G01565           CIRCULAR 0.800    0 0 0 1
G01566           CIRCULAR 0.800    0 0 0 1
G01567           CIRCULAR 0.800    0 0 0 1
G01568           CIRCULAR 0.800    0 0 0 1
G01569           CIRCULAR 0.800    0 0 0 1
G01570           CIRCULAR 0.800    0 0 0 1
G01571           CIRCULAR 0.800    0 0 0 1
G01572           CIRCULAR 0.800    0 0 0 1
G01573           CIRCULAR 0.800    0 0 0 1
G01574           CIRCULAR 0.800    0 0 0 1
G01575           CIRCULAR 0.800    0 0 0 1
G01576           CIRCULAR 0.800    0 0 0 1
G01577           CIRCULAR 0.800    0 0 0 1
G01578           CIRCULAR 0.800    0 0 0 1
G01579           CIRCULAR 0.800    0 0 0 1
G01580           CIRCULAR 0.800    0 0 0 1
G01581           CIRCULAR 0.800    0 0 0 1
G01582           CIRCULAR 1.200    0 0 0 1
G01583           CIRCULAR 1.200    0 0 0 1
G01584           CIRCULAR 0.800    0 0 0 1
G01585           CIRCULAR 1.200    0 0 0 1
G01586           CIRCULAR 0.800    0 0 0 1
G01587           CIRCULAR 1.500    0 0 0 1
G01588           CIRCULAR 0.800    0 0 0 1
G01589           CIRCULAR 0.800    0 0 0 1
G01590           CIRCULAR 0.800    0 0 0 1
G01591           CIRCULAR 0.800    0 0 0 1
G01592           CIRCULAR 0.800    0 0 0 1
G01593           CIRCULAR 0.800    0 0 0 1
G01594           CIRCULAR 1.200    0 0 0 1
G01595           CIRCULAR 1.200    0 0 0 1
G01596           CIRCULAR 1.200    0 0 0 1
G01597           CIRCULAR 0.800    0 0 0 1
G01598           CIRCULAR 0.800    0 0 0 1
G01599           CIRCULAR 0.800    0 0 0 1
G01600           CIRCULAR 0.800    0 0 0 1
G01601           CIRCULAR 0.800    0 0 0 1
G01602           CIRCULAR 0.800    0 0 0 1
G01603           CIRCULAR 0.800    0 0 0 1
G01604           CIRCULAR 0.800    0 0 0 1
G01605           CIRCULAR 0.800    0 0 0 1
G01606           CIRCULAR 0.800    0 0 0 1
G01607           CIRCULAR 0.800    0 0 0 1
G01608           CIRCULAR 0.800    0 0 0 1
G01609           CIRCULAR 0.800    0 0 0 1
G01610           CIRCULAR 0.800    0 0 0 1
G01611           CIRCULAR 0.800    0 0 0 1
G01612           CIRCULAR 0.800    0 0 0 1
G01613           CIRCULAR 0.800    0 0 0 1
G01614           CIRCULAR 0.800    0 0 0 1
G01615           CIRCULAR 0.800    0 0 0 1
G01616           CIRCULAR 0.800    0 0 0 1
G01617           CIRCULAR 1.000    0 0 0 1
G01618           CIRCULAR 1.000    0 0 0 1
G01619           CIRCULAR 1.000    0 0 0 1
G01620           CIRCULAR 1.000    0 0 0 1
G01621           CIRCULAR 0.800    0 0 0 1
G01622           CIRCULAR 0.800    0 0 0 1
G01623           CIRCULAR 0.800    0 0 0 1
G01624           CIRCULAR 0.800    0 0 0 1
G01625           CIRCULAR 0.800    0 0 0 1
G01626           CIRCULAR 0.800    0 0 0 1
G01627           CIRCULAR 0.800    0 0 0 1
G01628           CIRCULAR 0.800    0 0 0 1
G01629           CIRCULAR 0.800    0 0 0 1
G01630           CIRCULAR 1.000    0 0 0 1
G01631           CIRCULAR 0.800    0 0 0 1
G01632           CIRCULAR 0.800    0 0 0 1
G01633           CIRCULAR 1.200    0 0 0 1
G01634           CIRCULAR 1.200    0 0 0 1
G01635           CIRCULAR 0.800    0 0 0 1
G01636           CIRCULAR 1.000    0 0 0 1
G01637           CIRCULAR 1.200    0 0 0 1
G01638           CIRCULAR 1.200    0 0 0 1
G01639           CIRCULAR 1.200    0 0 0 1
G01640           CIRCULAR 1.200    0 0 0 1
G01641           CIRCULAR 0.800    0 0 0 1
G01642           CIRCULAR 0.800    0 0 0 1
G01643           CIRCULAR 0.800    0 0 0 1
G01644           CIRCULAR 1.200    0 0 0 1
G01645           CIRCULAR 1.200    0 0 0 1
G01646           CIRCULAR 0.800    0 0 0 1
G01647           CIRCULAR 0.800    0 0 0 1
G01648           CIRCULAR 0.800    0 0 0 1
G01649           CIRCULAR 1.200    0 0 0 1
G01650           CIRCULAR 1.000    0 0 0 1
G01651           CIRCULAR 1.000    0 0 0 1
G01652           CIRCULAR 1.000    0 0 0 1
G01653           CIRCULAR 0.800    0 0 0 1
G01654           CIRCULAR 0.800    0 0 0 1
G01655           CIRCULAR 0.800    0 0 0 1
G01656           CIRCULAR 1.000    0 0 0 1
G01657           CIRCULAR 0.800    0 0 0 1
G01658           CIRCULAR 0.800    0 0 0 1
G01659           CIRCULAR 0.800    0 0 0 1
G01660           CIRCULAR 1.500    0 0 0 1
G01661           CIRCULAR 1.500    0 0 0 1
G01662           CIRCULAR 1.500    0 0 0 1
G01663           CIRCULAR 0.800    0 0 0 1
G01664           CIRCULAR 0.800    0 0 0 1
G01665           CIRCULAR 0.800    0 0 0 1
G01666           CIRCULAR 0.800    0 0 0 1
G01667           CIRCULAR 0.800    0 0 0 1
G01668           CIRCULAR 0.800    0 0 0 1
G01669           CIRCULAR 1.200    0 0 0 1
G01670           CIRCULAR 1.200    0 0 0 1
G01671           CIRCULAR 0.800    0 0 0 1
G01672           CIRCULAR 1.200    0 0 0 1
G01673           CIRCULAR 0.800    0 0 0 1
G01674           CIRCULAR 0.800    0 0 0 1
G01675           CIRCULAR 1.000    0 0 0 1
G01676           CIRCULAR 1.000    0 0 0 1
G01677           CIRCULAR 0.800    0 0 0 1
G01678           CIRCULAR 0.800    0 0 0 1
G01679           CIRCULAR 0.800    0 0 0 1
G01680           CIRCULAR 0.800    0 0 0 1
G01681           CIRCULAR 0.800    0 0 0 1
G01682           CIRCULAR 0.800    0 0 0 1
G01683           CIRCULAR 1.000    0 0 0 1
G01684           CIRCULAR 1.000    0 0 0 1
G01685           CIRCULAR 1.000    0 0 0 1
G01686           CIRCULAR 1.000    0 0 0 1
G01687           CIRCULAR 0.800    0 0 0 1
G01688           CIRCULAR 0.800    0 0 0 1
G01689           CIRCULAR 0.800    0 0 0 1
G01690           CIRCULAR 0.800    0 0 0 1
G01691           CIRCULAR 0.800    0 0 0 1
G01692           CIRCULAR 0.800    0 0 0 1
G01693           CIRCULAR 1.000    0 0 0 1
G01694           CIRCULAR 1.000    0 0 0 1
G01695           CIRCULAR 1.000    0 0 0 1
G01696           CIRCULAR 0.800    0 0 0 1
G01697           CIRCULAR 1.000    0 0 0 1
G01698           CIRCULAR 1.200    0 0 0 1
G01699           CIRCULAR 1.200    0 0 0 1
G01700           CIRCULAR 1.000    0 0 0 1
G01701           CIRCULAR 1.000    0 0 0 1
G01702           CIRCULAR 1.000    0 0 0 1
G01703           CIRCULAR 0.800    0 0 0 1
G01704           CIRCULAR 0.800    0 0 0 1
G01705           CIRCULAR 1.000    0 0 0 1
G01706           CIRCULAR 1.000    0 0 0 1
G01707           CIRCULAR 0.800    0 0 0 1
G01708           CIRCULAR 0.800    0 0 0 1
G01709           CIRCULAR 0.800    0 0 0 1
G01710           CIRCULAR 0.800    0 0 0 1
G01711           CIRCULAR 1.000    0 0 0 1
G01712           CIRCULAR 0.800    0 0 0 1
G01713           CIRCULAR 0.800    0 0 0 1
G01714           CIRCULAR 0.800    0 0 0 1
G01715           CIRCULAR 0.800    0 0 0 1
G01716           CIRCULAR 0.800    0 0 0 1
G01717           CIRCULAR 0.800    0 0 0 1
G01718           CIRCULAR 0.800    0 0 0 1
G01719           CIRCULAR 0.800    0 0 0 1
G01720           CIRCULAR 0.800    0 0 0 1
G01721           CIRCULAR 0.800    0 0 0 1
G01722           CIRCULAR 0.800    0 0 0 1
G01723           CIRCULAR 0.800    0 0 0 1
G01724           CIRCULAR 0.800    0 0 0 1
G01725           CIRCULAR 0.800    0 0 0 1
G01726           CIRCULAR 0.800    0 0 0 1
G01727           CIRCULAR 0.800    0 0 0 1
G01728           CIRCULAR 0.800    0 0 0 1
G01729           CIRCULAR 0.800    0 0 0 1
G01730           CIRCULAR 0.800    0 0 0 1
G01731           CIRCULAR 0.800    0 0 0 1
G01732           CIRCULAR 0.800    0 0 0 1
G01733           CIRCULAR 0.800    0 0 0 1
G01734           CIRCULAR 1.000    0 0 0 1
G01735           CIRCULAR 0.800    0 0 0 1
G01736           CIRCULAR 1.000    0 0 0 1
G01737           CIRCULAR 0.800    0 0 0 1
G01738           CIRCULAR 0.800    0 0 0 1
G01739           CIRCULAR 0.800    0 0 0 1
G01740           CIRCULAR 0.800    0 0 0 1
G01741           CIRCULAR 0.800    0 0 0 1
G01742           CIRCULAR 0.800    0 0 0 1
G01743           CIRCULAR 0.800    0 0 0 1
G01744           CIRCULAR 0.800    0 0 0 1
G01745           CIRCULAR 0.800    0 0 0 1
G01746           CIRCULAR 0.800    0 0 0 1
G01747           CIRCULAR 0.800    0 0 0 1
G01748           CIRCULAR 0.800    0 0 0 1
G01749           CIRCULAR 1.500    0 0 0 1
G01750           CIRCULAR 1.500    0 0 0 1
G01751           CIRCULAR 0.800    0 0 0 1
G01752           CIRCULAR 0.800    0 0 0 1
G01753           CIRCULAR 0.800    0 0 0 1
G01754           CIRCULAR 0.800    0 0 0 1
G01755           CIRCULAR 0.800    0 0 0 1
G01756           CIRCULAR 0.800    0 0 0 1
G01757           CIRCULAR 0.800    0 0 0 1
G01758           CIRCULAR 0.800    0 0 0 1
G01759           CIRCULAR 0.800    0 0 0 1
G01760           CIRCULAR 0.800    0 0 0 1
G01761           CIRCULAR 0.800    0 0 0 1
G01762           CIRCULAR 1.000    0 0 0 1
G01763           CIRCULAR 0.800    0 0 0 1
G01764           CIRCULAR 0.800    0 0 0 1
G01765           CIRCULAR 0.800    0 0 0 1
G01766           CIRCULAR 0.800    0 0 0 1
G01767           CIRCULAR 0.800    0 0 0 1
G01768           CIRCULAR 0.800    0 0 0 1
G01769           CIRCULAR 0.800    0 0 0 1
G01770           CIRCULAR 0.800    0 0 0 1
G01771           CIRCULAR 0.800    0 0 0 1
G01772           CIRCULAR 0.800    0 0 0 1
G01773           CIRCULAR 0.800    0 0 0 1
G01774           CIRCULAR 1.000    0 0 0 1
G01775           CIRCULAR 1.000    0 0 0 1
G01776           CIRCULAR 0.800    0 0 0 1
G01777           CIRCULAR 1.200    0 0 0 1
G01778           CIRCULAR 0.800    0 0 0 1
G01779           CIRCULAR 0.800    0 0 0 1
G01780           CIRCULAR 1.200    0 0 0 1
G01781           CIRCULAR 0.800    0 0 0 1
G01782           CIRCULAR 0.800    0 0 0 1
G01783           CIRCULAR 0.800    0 0 0 1
G01784           CIRCULAR 0.800    0 0 0 1
G01785           CIRCULAR 0.800    0 0 0 1
G01786           CIRCULAR 0.800    0 0 0 1
G01787           CIRCULAR 0.800    0 0 0 1
G01788           CIRCULAR 0.800    0 0 0 1
G01789           CIRCULAR 0.800    0 0 0 1
G01790           CIRCULAR 1.200    0 0 0 1
G01791           CIRCULAR 1.200    0 0 0 1
G01792           CIRCULAR 1.200    0 0 0 1
G01793           CIRCULAR 1.200    0 0 0 1
G01794           CIRCULAR 1.200    0 0 0 1
G01795           CIRCULAR 1.200    0 0 0 1
G01796           CIRCULAR 0.800    0 0 0 1
G01797           CIRCULAR 1.200    0 0 0 1
G01798           CIRCULAR 0.800    0 0 0 1
G01799           CIRCULAR 1.200    0 0 0 1
G01800           CIRCULAR 0.800    0 0 0 1
G01801           CIRCULAR 0.800    0 0 0 1
G01802           CIRCULAR 1.200    0 0 0 1
G01803           CIRCULAR 0.800    0 0 0 1
G01804           CIRCULAR 0.800    0 0 0 1
G01805           CIRCULAR 0.800    0 0 0 1
G01806           CIRCULAR 0.800    0 0 0 1
G01807           CIRCULAR 0.800    0 0 0 1
G01808           CIRCULAR 0.800    0 0 0 1
G01809           CIRCULAR 0.800    0 0 0 1
G01810           CIRCULAR 1.000    0 0 0 1
G01811           CIRCULAR 1.200    0 0 0 1
G01812           CIRCULAR 1.200    0 0 0 1
G01813           CIRCULAR 1.000    0 0 0 1
G01814           CIRCULAR 1.000    0 0 0 1
G01815           CIRCULAR 1.000    0 0 0 1
G01816           CIRCULAR 0.800    0 0 0 1
G01817           CIRCULAR 0.800    0 0 0 1
G01818           CIRCULAR 0.800    0 0 0 1
G01819           CIRCULAR 0.800    0 0 0 1
G01820           CIRCULAR 0.800    0 0 0 1
G01821           CIRCULAR 0.800    0 0 0 1
G01822           CIRCULAR 1.000    0 0 0 1
G01823           CIRCULAR 1.200    0 0 0 1
G01824           CIRCULAR 1.200    0 0 0 1
G01825           CIRCULAR 0.800    0 0 0 1
G01826           CIRCULAR 1.000    0 0 0 1
G01827           CIRCULAR 1.200    0 0 0 1
G01828           CIRCULAR 1.200    0 0 0 1
G01829           CIRCULAR 0.800    0 0 0 1
G01830           CIRCULAR 0.800    0 0 0 1
G01831           CIRCULAR 0.800    0 0 0 1
G01832           CIRCULAR 0.800    0 0 0 1
G01833           CIRCULAR 0.800    0 0 0 1
G01834           CIRCULAR 1.000    0 0 0 1
G01835           CIRCULAR 0.800    0 0 0 1
G01836           CIRCULAR 1.000    0 0 0 1
G01837           CIRCULAR 1.000    0 0 0 1
G01838           CIRCULAR 1.000    0 0 0 1
G01839           CIRCULAR 0.800    0 0 0 1
G01840           CIRCULAR 0.800    0 0 0 1
G01841           CIRCULAR 0.800    0 0 0 1
G01842           CIRCULAR 0.800    0 0 0 1
G01843           CIRCULAR 0.800    0 0 0 1
G01844           CIRCULAR 0.800    0 0 0 1
G01845           CIRCULAR 0.800    0 0 0 1
G01846           CIRCULAR 0.800    0 0 0 1
G01847           CIRCULAR 0.800    0 0 0 1
G01848           CIRCULAR 0.800    0 0 0 1
G01849           CIRCULAR 0.800    0 0 0 1
G01850           CIRCULAR 0.800    0 0 0 1
G01851           CIRCULAR 0.800    0 0 0 1
G01852           CIRCULAR 0.800    0 0 0 1
G01853           CIRCULAR 0.800    0 0 0 1
G01854           CIRCULAR 0.800    0 0 0 1
G01855           CIRCULAR 0.800    0 0 0 1
G01856           CIRCULAR 0.800    0 0 0 1
G01857           CIRCULAR 0.800    0 0 0 1
G01858           CIRCULAR 0.800    0 0 0 1
G01859           CIRCULAR 0.800    0 0 0 1
G01860           CIRCULAR 0.800    0 0 0 1
G01861           CIRCULAR 0.800    0 0 0 1
G01862           CIRCULAR 0.800    0 0 0 1
G01863           CIRCULAR 1.500    0 0 0 1
G01864           CIRCULAR 1.500    0 0 0 1
G01865           CIRCULAR 1.500    0 0 0 1
G01866           CIRCULAR 0.800    0 0 0 1
G01867           CIRCULAR 0.800    0 0 0 1
G01868           CIRCULAR 0.800    0 0 0 1
G01869           CIRCULAR 0.800    0 0 0 1
G01870           CIRCULAR 0.800    0 0 0 1
G01871           CIRCULAR 0.800    0 0 0 1
G01872           CIRCULAR 1.200    0 0 0 1
G01873           CIRCULAR 1.200    0 0 0 1
G01874           CIRCULAR 0.800    0 0 0 1
G01875           CIRCULAR 0.800    0 0 0 1
G01876           CIRCULAR 0.800    0 0 0 1
G01877           CIRCULAR 0.800    0 0 0 1
G01878           CIRCULAR 0.800    0 0 0 1
G01879           CIRCULAR 0.800    0 0 0 1
G01880           CIRCULAR 1.000    0 0 0 1
G01881           CIRCULAR 0.800    0 0 0 1
G01882           CIRCULAR 0.800    0 0 0 1
G01883           CIRCULAR 0.800    0 0 0 1
G01884           CIRCULAR 0.800    0 0 0 1
G01885           CIRCULAR 0.800    0 0 0 1
G01886           CIRCULAR 0.800    0 0 0 1
G01887           CIRCULAR 0.800    0 0 0 1
G01888           CIRCULAR 0.800    0 0 0 1
G01889           CIRCULAR 0.800    0 0 0 1
G01890           CIRCULAR 0.800    0 0 0 1
G01891           CIRCULAR 0.800    0 0 0 1
G01892           CIRCULAR 1.000    0 0 0 1
G01893           CIRCULAR 0.800    0 0 0 1
G01894           CIRCULAR 0.800    0 0 0 1
G01895           CIRCULAR 1.000    0 0 0 1
G01896           CIRCULAR 1.000    0 0 0 1
G01897           CIRCULAR 1.000    0 0 0 1
G01898           CIRCULAR 0.800    0 0 0 1
G01899           CIRCULAR 0.800    0 0 0 1
G01900           CIRCULAR 0.800    0 0 0 1
G01901           CIRCULAR 0.800    0 0 0 1
G01902           CIRCULAR 0.800    0 0 0 1
G01903           CIRCULAR 0.800    0 0 0 1
G01904           CIRCULAR 0.800    0 0 0 1
G01905           CIRCULAR 0.800    0 0 0 1
G01906           CIRCULAR 0.800    0 0 0 1
G01907           CIRCULAR 0.800    0 0 0 1
G01908           CIRCULAR 0.800    0 0 0 1
G01909           CIRCULAR 0.800    0 0 0 1
G01910           CIRCULAR 0.800    0 0 0 1
G01911           CIRCULAR 1.000    0 0 0 1
G01912           CIRCULAR 0.800    0 0 0 1
G01913           CIRCULAR 0.800    0 0 0 1
G01914           CIRCULAR 0.800    0 0 0 1
G01915           CIRCULAR 0.800    0 0 0 1
G01916           CIRCULAR 0.800    0 0 0 1
G01917           CIRCULAR 0.800    0 0 0 1
G01918           CIRCULAR 0.800    0 0 0 1
G01919           CIRCULAR 0.800    0 0 0 1
G01920           CIRCULAR 0.800    0 0 0 1
G01921           CIRCULAR 0.800    0 0 0 1
G01922           CIRCULAR 0.800    0 0 0 1
G01923           CIRCULAR 1.200    0 0 0 1
G01924           CIRCULAR 1.200    0 0 0 1
G01925           CIRCULAR 1.200    0 0 0 1
G01926           CIRCULAR 1.200    0 0 0 1
G01927           CIRCULAR 0.800    0 0 0 1
G01928           CIRCULAR 0.800    0 0 0 1
G01929           CIRCULAR 0.800    0 0 0 1
G01930           CIRCULAR 0.800    0 0 0 1
G01931           CIRCULAR 1.000    0 0 0 1
G01932           CIRCULAR 1.000    0 0 0 1
G01933           CIRCULAR 0.800    0 0 0 1
G01934           CIRCULAR 0.800    0 0 0 1
G01935           CIRCULAR 0.800    0 0 0 1
G01936           CIRCULAR 0.800    0 0 0 1
G01937           CIRCULAR 0.800    0 0 0 1
G01938           CIRCULAR 0.800    0 0 0 1
G01939           CIRCULAR 0.800    0 0 0 1
G01940           CIRCULAR 0.800    0 0 0 1
G01941           CIRCULAR 0.800    0 0 0 1
G01942           CIRCULAR 0.800    0 0 0 1
G01943           CIRCULAR 0.800    0 0 0 1
G01944           CIRCULAR 1.200    0 0 0 1
G01945           CIRCULAR 1.200    0 0 0 1
G01946           CIRCULAR 0.800    0 0 0 1
G01947           CIRCULAR 0.800    0 0 0 1
G01948           CIRCULAR 1.000    0 0 0 1
G01949           CIRCULAR 0.800    0 0 0 1
G01950           CIRCULAR 0.800    0 0 0 1
G01951           CIRCULAR 0.800    0 0 0 1
G01952           CIRCULAR 0.800    0 0 0 1
G01953           CIRCULAR 0.800    0 0 0 1
G01954           CIRCULAR 0.800    0 0 0 1
G01955           CIRCULAR 0.800    0 0 0 1
G01956           CIRCULAR 1.000    0 0 0 1
G01957           CIRCULAR 1.000    0 0 0 1
G01958           CIRCULAR 1.000    0 0 0 1
G01959           CIRCULAR 0.800    0 0 0 1
G01960           CIRCULAR 0.800    0 0 0 1
G01961           CIRCULAR 0.800    0 0 0 1
G01962           CIRCULAR 0.800    0 0 0 1
G01963           CIRCULAR 0.800    0 0 0 1
G01964           CIRCULAR 0.800    0 0 0 1
G01965           CIRCULAR 0.800    0 0 0 1
G01966           CIRCULAR 0.800    0 0 0 1
G01967           CIRCULAR 0.800    0 0 0 1
G01968           CIRCULAR 0.800    0 0 0 1
G01969           CIRCULAR 0.800    0 0 0 1
G01970           CIRCULAR 0.800    0 0 0 1
G01971           CIRCULAR 0.800    0 0 0 1
G01972           CIRCULAR 0.800    0 0 0 1
G01973           CIRCULAR 1.000    0 0 0 1
G01974           CIRCULAR 0.800    0 0 0 1
G01975           CIRCULAR 0.800    0 0 0 1
G01976           CIRCULAR 0.800    0 0 0 1
G01977           CIRCULAR 0.800    0 0 0 1
G01978           CIRCULAR 0.800    0 0 0 1
G01979           CIRCULAR 0.800    0 0 0 1
G01980           CIRCULAR 0.800    0 0 0 1
G01981           CIRCULAR 0.800    0 0 0 1
G01982           CIRCULAR 0.800    0 0 0 1
G01983           CIRCULAR 0.800    0 0 0 1
G01984           CIRCULAR 0.800    0 0 0 1
G01985           CIRCULAR 0.800    0 0 0 1
G01986           CIRCULAR 0.800    0 0 0 1
G01987           CIRCULAR 0.800    0 0 0 1
G01988           CIRCULAR 0.800    0 0 0 1
G01989           CIRCULAR 0.800    0 0 0 1
G01990           CIRCULAR 0.800    0 0 0 1
G01991           CIRCULAR 0.800    0 0 0 1
G01992           CIRCULAR 0.800    0 0 0 1
G01993           CIRCULAR 1.000    0 0 0 1
G01994           CIRCULAR 0.800    0 0 0 1
G01995           CIRCULAR 0.800    0 0 0 1
G01996           CIRCULAR 0.800    0 0 0 1
G01997           CIRCULAR 1.000    0 0 0 1
G01998           CIRCULAR 0.800    0 0 0 1
G01999           CIRCULAR 0.800    0 0 0 1
G02000           CIRCULAR 0.800    0 0 0 1
G02001           CIRCULAR 0.800    0 0 0 1
G02002           CIRCULAR 1.200    0 0 0 1
G02003           CIRCULAR 1.200    0 0 0 1
G02004           CIRCULAR 1.000    0 0 0 1
G02005           CIRCULAR 1.000    0 0 0 1
G02006           CIRCULAR 0.800    0 0 0 1
G02007           CIRCULAR 0.800    0 0 0 1
G02008           CIRCULAR 1.200    0 0 0 1
G02009           CIRCULAR 1.200    0 0 0 1
G02010           CIRCULAR 0.800    0 0 0 1
G02011           CIRCULAR 0.800    0 0 0 1
G02012           CIRCULAR 0.800    0 0 0 1
G02013           CIRCULAR 0.800    0 0 0 1
G02014           CIRCULAR 1.200    0 0 0 1
G02015           CIRCULAR 0.800    0 0 0 1
G02016           CIRCULAR 0.800    0 0 0 1
G02017           CIRCULAR 0.800    0 0 0 1
G02018           CIRCULAR 1.000    0 0 0 1
G02019           CIRCULAR 0.800    0 0 0 1
G02020           CIRCULAR 0.800    0 0 0 1
G02021           CIRCULAR 1.200    0 0 0 1
G02022           CIRCULAR 1.200    0 0 0 1
G02023           CIRCULAR 0.800    0 0 0 1
G02024           CIRCULAR 0.800    0 0 0 1
G02025           CIRCULAR 0.800    0 0 0 1
G02026           CIRCULAR 0.800    0 0 0 1
G02027           CIRCULAR 0.800    0 0 0 1
G02028           CIRCULAR 0.800    0 0 0 1
G02029           CIRCULAR 0.800    0 0 0 1
G02030           CIRCULAR 0.800    0 0 0 1
G02031           CIRCULAR 0.800    0 0 0 1
G02032           CIRCULAR 0.800    0 0 0 1
G02033           CIRCULAR 0.800    0 0 0 1
G02034           CIRCULAR 0.800    0 0 0 1
G02035           CIRCULAR 0.800    0 0 0 1
G02036           CIRCULAR 0.800    0 0 0 1
G02037           CIRCULAR 0.800    0 0 0 1
G02038           CIRCULAR 1.200    0 0 0 1
G02039           CIRCULAR 0.800    0 0 0 1
G02040           CIRCULAR 0.800    0 0 0 1
G02041           CIRCULAR 0.800    0 0 0 1
G02042           CIRCULAR 0.800    0 0 0 1
G02043           CIRCULAR 1.200    0 0 0 1
G02044           CIRCULAR 0.800    0 0 0 1
G02045           CIRCULAR 0.800    0 0 0 1
G02046           CIRCULAR 0.800    0 0 0 1
G02047           CIRCULAR 1.200    0 0 0 1
G02048           CIRCULAR 1.200    0 0 0 1
G02049           CIRCULAR 0.800    0 0 0 1
G02050           CIRCULAR 0.800    0 0 0 1
G02051           CIRCULAR 0.800    0 0 0 1
G02052           CIRCULAR 0.800    0 0 0 1
G02053           CIRCULAR 0.800    0 0 0 1
G02054           CIRCULAR 0.800    0 0 0 1
G02055           CIRCULAR 0.800    0 0 0 1
G02056           CIRCULAR 0.800    0 0 0 1
G02057           CIRCULAR 0.800    0 0 0 1
G02058           CIRCULAR 0.800    0 0 0 1
G02059           CIRCULAR 1.000    0 0 0 1
G02060           CIRCULAR 1.200    0 0 0 1
G02061           CIRCULAR 1.200    0 0 0 1
G02062           CIRCULAR 0.800    0 0 0 1
G02063           CIRCULAR 0.800    0 0 0 1
G02064           CIRCULAR 0.800    0 0 0 1
G02065           CIRCULAR 0.800    0 0 0 1
G02066           CIRCULAR 0.800    0 0 0 1
G02067           CIRCULAR 0.800    0 0 0 1
G02068           CIRCULAR 1.000    0 0 0 1
G02069           CIRCULAR 1.000    0 0 0 1
G02070           CIRCULAR 0.800    0 0 0 1
G02071           CIRCULAR 0.800    0 0 0 1
G02072           CIRCULAR 0.800    0 0 0 1
G02073           CIRCULAR 0.800    0 0 0 1
G02074           CIRCULAR 0.800    0 0 0 1
G02075           CIRCULAR 0.800    0 0 0 1
G02076           CIRCULAR 0.800    0 0 0 1
G02077           CIRCULAR 0.800    0 0 0 1
G02078           CIRCULAR 0.800    0 0 0 1
G02079           CIRCULAR 0.800    0 0 0 1
G02080           CIRCULAR 0.800    0 0 0 1
G02081           CIRCULAR 0.800    0 0 0 1
G02082           CIRCULAR 1.200    0 0 0 1
G02083           CIRCULAR 0.800    0 0 0 1
G02084           CIRCULAR 0.800    0 0 0 1
G02085           CIRCULAR 0.800    0 0 0 1
G02086           CIRCULAR 0.800    0 0 0 1
G02087           CIRCULAR 0.800    0 0 0 1
G02088           CIRCULAR 0.800    0 0 0 1
G02089           CIRCULAR 0.800    0 0 0 1
G02090           CIRCULAR 0.800    0 0 0 1
G02091           CIRCULAR 0.800    0 0 0 1
G02092           CIRCULAR 0.800    0 0 0 1
G02093           CIRCULAR 0.800    0 0 0 1
G02094           CIRCULAR 0.800    0 0 0 1
G02095           CIRCULAR 1.000    0 0 0 1
G02096           CIRCULAR 1.000    0 0 0 1
G02097           CIRCULAR 0.800    0 0 0 1
G02098           CIRCULAR 0.800    0 0 0 1
G02099           CIRCULAR 0.800    0 0 0 1
G02100           CIRCULAR 0.800    0 0 0 1
G02101           CIRCULAR 0.800    0 0 0 1
G02102           CIRCULAR 0.800    0 0 0 1
G02103           CIRCULAR 1.000    0 0 0 1
G02104           CIRCULAR 0.800    0 0 0 1
G02105           CIRCULAR 0.800    0 0 0 1
G02106           CIRCULAR 0.800    0 0 0 1
G02107           CIRCULAR 1.000    0 0 0 1
G02108           CIRCULAR 1.000    0 0 0 1
G02109           CIRCULAR 0.800    0 0 0 1
G02110           CIRCULAR 0.800    0 0 0 1
G02111           CIRCULAR 1.000    0 0 0 1
G02112           CIRCULAR 0.800    0 0 0 1
G02113           CIRCULAR 0.800    0 0 0 1
G02114           CIRCULAR 0.800    0 0 0 1
G02115           CIRCULAR 0.800    0 0 0 1
G02116           CIRCULAR 0.800    0 0 0 1
G02117           CIRCULAR 0.800    0 0 0 1
G02118           CIRCULAR 0.800    0 0 0 1
G02119           CIRCULAR 0.800    0 0 0 1
G02120           CIRCULAR 0.800    0 0 0 1
G02121           CIRCULAR 0.800    0 0 0 1
G02122           CIRCULAR 1.000    0 0 0 1
G02123           CIRCULAR 1.000    0 0 0 1
G02124           CIRCULAR 0.800    0 0 0 1
G02125           CIRCULAR 0.800    0 0 0 1
G02126           CIRCULAR 0.800    0 0 0 1
G02127           CIRCULAR 0.800    0 0 0 1
G02128           CIRCULAR 0.800    0 0 0 1
G02129           CIRCULAR 0.800    0 0 0 1
G02130           CIRCULAR 0.800    0 0 0 1
G02131           CIRCULAR 0.800    0 0 0 1
G02132           CIRCULAR 1.200    0 0 0 1
G02133           CIRCULAR 1.200    0 0 0 1
G02134           CIRCULAR 0.800    0 0 0 1
G02135           CIRCULAR 1.000    0 0 0 1
G02136           CIRCULAR 1.200    0 0 0 1
G02137           CIRCULAR 0.800    0 0 0 1
G02138           CIRCULAR 0.800    0 0 0 1
G02139           CIRCULAR 0.800    0 0 0 1
G02140           CIRCULAR 0.800    0 0 0 1
G02141           CIRCULAR 0.800    0 0 0 1
G02142           CIRCULAR 0.800    0 0 0 1
G02143           CIRCULAR 0.800    0 0 0 1
G02144           CIRCULAR 0.800    0 0 0 1
G02145           CIRCULAR 0.800    0 0 0 1
G02146           CIRCULAR 1.200    0 0 0 1
G02147           CIRCULAR 0.800    0 0 0 1
G02148           CIRCULAR 0.800    0 0 0 1
G02149           CIRCULAR 0.800    0 0 0 1
G02150           CIRCULAR 0.800    0 0 0 1
G02151           CIRCULAR 1.000    0 0 0 1
G02152           CIRCULAR 0.800    0 0 0 1
G02153           CIRCULAR 1.000    0 0 0 1
G02154           CIRCULAR 1.000    0 0 0 1
G02155           CIRCULAR 0.800    0 0 0 1
G02156           CIRCULAR 0.800    0 0 0 1
G02157           CIRCULAR 0.800    0 0 0 1
G02158           CIRCULAR 0.800    0 0 0 1
G02159           CIRCULAR 0.800    0 0 0 1
G02160           CIRCULAR 0.800    0 0 0 1
G02161           CIRCULAR 0.800    0 0 0 1
G02162           CIRCULAR 1.000    0 0 0 1
G02163           CIRCULAR 0.800    0 0 0 1
G02164           CIRCULAR 0.800    0 0 0 1
G02165           CIRCULAR 0.800    0 0 0 1
G02166           CIRCULAR 0.800    0 0 0 1
G02167           CIRCULAR 0.800    0 0 0 1
G02168           CIRCULAR 1.200    0 0 0 1
G02169           CIRCULAR 1.200    0 0 0 1
G02170           CIRCULAR 0.800    0 0 0 1
G02171           CIRCULAR 0.800    0 0 0 1
G02172           CIRCULAR 0.800    0 0 0 1
G02173           CIRCULAR 0.800    0 0 0 1
G02174           CIRCULAR 1.000    0 0 0 1
G02175           CIRCULAR 0.800    0 0 0 1
G02176           CIRCULAR 0.800    0 0 0 1
G02177           CIRCULAR 0.800    0 0 0 1
G02178           CIRCULAR 1.200    0 0 0 1
G02179           CIRCULAR 1.200    0 0 0 1
G02180           CIRCULAR 0.800    0 0 0 1
G02181           CIRCULAR 0.800    0 0 0 1
G02182           CIRCULAR 0.800    0 0 0 1
G02183           CIRCULAR 0.800    0 0 0 1
G02184           CIRCULAR 0.800    0 0 0 1
G02185           CIRCULAR 0.800    0 0 0 1
G02186           CIRCULAR 0.800    0 0 0 1
G02187           CIRCULAR 0.800    0 0 0 1
G02188           CIRCULAR 0.800    0 0 0 1
G02189           CIRCULAR 0.800    0 0 0 1
G02190           CIRCULAR 0.800    0 0 0 1
G02191           CIRCULAR 1.200    0 0 0 1
G02192           CIRCULAR 0.800    0 0 0 1
G02193           CIRCULAR 0.800    0 0 0 1
G02194           CIRCULAR 0.800    0 0 0 1
G02195           CIRCULAR 0.800    0 0 0 1
G02196           CIRCULAR 0.800    0 0 0 1
G02197           CIRCULAR 0.800    0 0 0 1
G02198           CIRCULAR 0.800    0 0 0 1
G02199           CIRCULAR 0.800    0 0 0 1
G02200           CIRCULAR 0.800    0 0 0 1
G02201           CIRCULAR 1.000    0 0 0 1
G02202           CIRCULAR 0.800    0 0 0 1
G02203           CIRCULAR 0.800    0 0 0 1
G02204           CIRCULAR 0.800    0 0 0 1
G02205           CIRCULAR 0.800    0 0 0 1
G02206           CIRCULAR 0.800    0 0 0 1
G02207           CIRCULAR 0.800    0 0 0 1
G02208           CIRCULAR 1.000    0 0 0 1
G02209           CIRCULAR 1.000    0 0 0 1
G02210           CIRCULAR 0.800    0 0 0 1
G02211           CIRCULAR 0.800    0 0 0 1
G02212           CIRCULAR 1.500    0 0 0 1
G02213           CIRCULAR 0.800    0 0 0 1
G02214           CIRCULAR 0.800    0 0 0 1
G02215           CIRCULAR 1.000    0 0 0 1
G02216           CIRCULAR 0.800    0 0 0 1
G02217           CIRCULAR 0.800    0 0 0 1
G02218           CIRCULAR 0.800    0 0 0 1
G02219           CIRCULAR 0.800    0 0 0 1
G02220           CIRCULAR 0.800    0 0 0 1
G02221           CIRCULAR 0.800    0 0 0 1
G02222           CIRCULAR 0.800    0 0 0 1
G02223           CIRCULAR 0.800    0 0 0 1
G02224           CIRCULAR 0.800    0 0 0 1
G02225           CIRCULAR 0.800    0 0 0 1
G02226           CIRCULAR 0.800    0 0 0 1
G02227           CIRCULAR 0.800    0 0 0 1
G02228           CIRCULAR 0.800    0 0 0 1
G02229           CIRCULAR 0.800    0 0 0 1
G02230           CIRCULAR 1.000    0 0 0 1
G02231           CIRCULAR 1.000    0 0 0 1
G02232           CIRCULAR 0.800    0 0 0 1
G02233           CIRCULAR 0.800    0 0 0 1
G02234           CIRCULAR 0.800    0 0 0 1
G02235           CIRCULAR 0.800    0 0 0 1
G02236           CIRCULAR 1.200    0 0 0 1
G02237           CIRCULAR 0.800    0 0 0 1
G02238           CIRCULAR 0.800    0 0 0 1
G02239           CIRCULAR 0.800    0 0 0 1
G02240           CIRCULAR 0.800    0 0 0 1
G02241           CIRCULAR 0.800    0 0 0 1
G02242           CIRCULAR 0.800    0 0 0 1
G02243           CIRCULAR 0.800    0 0 0 1
G02244           CIRCULAR 0.800    0 0 0 1
G02245           CIRCULAR 0.800    0 0 0 1
G02246           CIRCULAR 0.800    0 0 0 1
G02247           CIRCULAR 0.800    0 0 0 1
G02248           CIRCULAR 0.800    0 0 0 1
G02249           CIRCULAR 0.800    0 0 0 1
G02250           CIRCULAR 0.800    0 0 0 1
O00001           CIRCULAR 1.500    0 0 0 1
O00002           CIRCULAR 1.200    0 0 0 1
O00003           CIRCULAR 1.500    0 0 0 1
O00004           CIRCULAR 1.500    0 0 0 1
O00005           CIRCULAR 1.200    0 0 0 1
O00006           CIRCULAR 1.200    0 0 0 1
O00007           CIRCULAR 1.200    0 0 0 1
O00008           CIRCULAR 1.200    0 0 0 1
O00009           CIRCULAR 1.500    0 0 0 1
O00010           CIRCULAR 1.500    0 0 0 1
O00011           CIRCULAR 1.000    0 0 0 1
O00012           CIRCULAR 1.200    0 0 0 1
O00013           CIRCULAR 1.200    0 0 0 1
O00014           CIRCULAR 1.500    0 0 0 1
O00015           CIRCULAR 1.200    0 0 0 1
O00016           CIRCULAR 1.200    0 0 0 1
O00017           CIRCULAR 1.200    0 0 0 1
O00018           CIRCULAR 1.200    0 0 0 1
O00019           CIRCULAR 1.500    0 0 0 1
O00020           CIRCULAR 1.200    0 0 0 1
O00021           CIRCULAR 1.200    0 0 0 1
O00022           CIRCULAR 1.200    0 0 0 1
O00023           CIRCULAR 1.200    0 0 0 1
O00024           CIRCULAR 1.500    0 0 0 1
O00025           CIRCULAR 1.200    0 0 0 1
O00026           CIRCULAR 1.200    0 0 0 1
O00027           CIRCULAR 1.200    0 0 0 1
O00028           CIRCULAR 1.200    0 0 0 1
O00029           CIRCULAR 1.200    0 0 0 1
O00030           CIRCULAR 1.200    0 0 0 1
O00031           CIRCULAR 1.200    0 0 0 1
O00032           CIRCULAR 1.200    0 0 0 1
O00033           CIRCULAR 1.200    0 0 0 1
O00034           CIRCULAR 1.200    0 0 0 1
O00035           CIRCULAR 1.200    0 0 0 1
O00036           CIRCULAR 1.200    0 0 0 1
O00037           CIRCULAR 1.200    0 0 0 1
O00038           CIRCULAR 1.200    0 0 0 1
O00039           CIRCULAR 1.200    0 0 0 1
O00040           CIRCULAR 1.200    0 0 0 1
O00041           CIRCULAR 1.200    0 0 0 1
O00042           CIRCULAR 1.200    0 0 0 1
O00043           CIRCULAR 1.200    0 0 0 1
O00044           CIRCULAR 1.200    0 0 0 1
O00045           CIRCULAR 1.200    0 0 0 1
O00046           CIRCULAR 1.200    0 0 0 1
O00047           CIRCULAR 1.200    0 0 0 1
O00048           CIRCULAR 1.200    0 0 0 1
O00049           CIRCULAR 1.200    0 0 0 1
O00050           CIRCULAR 1.200    0 0 0 1
O00051           CIRCULAR 1.200    0 0 0 1
O00052           CIRCULAR 1.200    0 0 0 1
O00053           CIRCULAR 1.200    0 0 0 1
O00054           CIRCULAR 1.200    0 0 0 1
O00055           CIRCULAR 1.200    0 0 0 1
O00056           CIRCULAR 1.200    0 0 0 1
O00057           CIRCULAR 1.200    0 0 0 1
O00058           CIRCULAR 1.200    0 0 0 1
O00059           CIRCULAR 1.200    0 0 0 1
O00060           CIRCULAR 1.200    0 0 0 1
O00061           CIRCULAR 1.200    0 0 0 1
O00062           CIRCULAR 1.200    0 0 0 1
O00063           CIRCULAR 1.200    0 0 0 1
O00064           CIRCULAR 1.200    0 0 0 1
O00065           CIRCULAR 1.200    0 0 0 1
O00066           CIRCULAR 1.200    0 0 0 1
O00067           CIRCULAR 1.200    0 0 0 1
O00068           CIRCULAR 1.200    0 0 0 1
O00069           CIRCULAR 1.200    0 0 0 1
O00070           CIRCULAR 1.200    0 0 0 1
O00071           CIRCULAR 1.200    0 0 0 1
O00072           CIRCULAR 1.200    0 0 0 1
O00073           CIRCULAR 1.200    0 0 0 1
O00074           CIRCULAR 1.200    0 0 0 1
O00075           CIRCULAR 1.200    0 0 0 1
O00076           CIRCULAR 1.200    0 0 0 1
O00077           CIRCULAR 1.200    0 0 0 1
O00078           CIRCULAR 1.200    0 0 0 1
O00079           CIRCULAR 1.200    0 0 0 1
O00080           CIRCULAR 1.200    0 0 0 1
O00081           CIRCULAR 1.200    0 0 0 1
O00082           CIRCULAR 1.200    0 0 0 1
O00083           CIRCULAR 1.200    0 0 0 1
O00084           CIRCULAR 1.200    0 0 0 1
O00085           CIRCULAR 1.200    0 0 0 1
O00086           CIRCULAR 1.200    0 0 0 1
O00087           CIRCULAR 1.200    0 0 0 1
O00088           CIRCULAR 1.200    0 0 0 1
O00089           CIRCULAR 1.200    0 0 0 1
O00090           CIRCULAR 1.200    0 0 0 1
O00091           CIRCULAR 1.200    0 0 0 1
O00092           CIRCULAR 1.200    0 0 0 1
O00093           CIRCULAR 1.200    0 0 0 1
O00094           CIRCULAR 1.200    0 0 0 1
O00095           CIRCULAR 1.200    0 0 0 1
O00096           CIRCULAR 1.200    0 0 0 1
O00097           CIRCULAR 1.200    0 0 0 1
O00098           CIRCULAR 1.200    0 0 0 1
O00099           CIRCULAR 1.200    0 0 0 1
O00100           CIRCULAR 1.200    0 0 0 1
O00101           CIRCULAR 1.200    0 0 0 1
O00102           CIRCULAR 1.200    0 0 0 1
O00103           CIRCULAR 1.200    0 0 0 1
O00104           CIRCULAR 1.200    0 0 0 1
O00105           CIRCULAR 1.200    0 0 0 1
O00106           CIRCULAR 1.200    0 0 0 1
O00107           CIRCULAR 1.200    0 0 0 1
O00108           CIRCULAR 1.200    0 0 0 1
O00109           CIRCULAR 1.200    0 0 0 1
O00110           CIRCULAR 1.200    0 0 0 1
O00111           CIRCULAR 1.200    0 0 0 1
O00112           CIRCULAR 1.200    0 0 0 1
O00113           CIRCULAR 1.200    0 0 0 1
O00114           CIRCULAR 1.200    0 0 0 1
O00115           CIRCULAR 1.200    0 0 0 1
O00116           CIRCULAR 1.200    0 0 0 1
O00117           CIRCULAR 1.200    0 0 0 1
O00118           CIRCULAR 1.200    0 0 0 1
O00119           CIRCULAR 1.200    0 0 0 1
O00120           CIRCULAR 1.200    0 0 0 1
O00121           CIRCULAR 1.200    0 0 0 1
O00122           CIRCULAR 1.200    0 0 0 1
O00123           CIRCULAR 1.200    0 0 0 1
O00124           CIRCULAR 1.200    0 0 0 1
O00125           CIRCULAR 1.200    0 0 0 1
O00126           CIRCULAR 1.200    0 0 0 1
O00127           CIRCULAR 1.200    0 0 0 1
O00128           CIRCULAR 1.200    0 0 0 1
O00129           CIRCULAR 1.200    0 0 0 1
O00130           CIRCULAR 1.200    0 0 0 1
O00131           CIRCULAR 1.200    0 0 0 1
O00132           CIRCULAR 1.200    0 0 0 1
O00133           CIRCULAR 1.200    0 0 0 1
O00134           CIRCULAR 1.200    0 0 0 1
O00135           CIRCULAR 1.200    0 0 0 1
O00136           CIRCULAR 1.200    0 0 0 1
O00137           CIRCULAR 1.200    0 0 0 1
O00138           CIRCULAR 1.200    0 0 0 1
O00139           CIRCULAR 1.200    0 0 0 1
O00140           CIRCULAR 1.200    0 0 0 1
O00141           CIRCULAR 1.200    0 0 0 1
O00142           CIRCULAR 1.200    0 0 0 1
O00143           CIRCULAR 1.200    0 0 0 1
O00144           CIRCULAR 1.200    0 0 0 1
O00145           CIRCULAR 1.200    0 0 0 1
O00146           CIRCULAR 1.200    0 0 0 1
O00147           CIRCULAR 1.200    0 0 0 1
O00148           CIRCULAR 1.200    0 0 0 1
O00149           CIRCULAR 1.200    0 0 0 1
O00150           CIRCULAR 1.200    0 0 0 1
O00151           CIRCULAR 1.200    0 0 0 1
O00152           CIRCULAR 1.200    0 0 0 1
O00153           CIRCULAR 1.200    0 0 0 1
O00154           CIRCULAR 1.200    0 0 0 1
O00155           CIRCULAR 1.200    0 0 0 1
O00156           CIRCULAR 1.200    0 0 0 1
O00157           CIRCULAR 1.200    0 0 0 1
O00158           CIRCULAR 1.200    0 0 0 1
O00159           CIRCULAR 1.200    0 0 0 1
O00160           CIRCULAR 1.200    0 0 0 1
O00161           CIRCULAR 1.200    0 0 0 1
O00162           CIRCULAR 1.200    0 0 0 1
O00163           CIRCULAR 1.200    0 0 0 1
O00164           CIRCULAR 1.200    0 0 0 1
O00165           CIRCULAR 1.200    0 0 0 1
O00166           CIRCULAR 1.200    0 0 0 1
O00167           CIRCULAR 1.200    0 0 0 1
O00168           CIRCULAR 1.200    0 0 0 1
O00169           CIRCULAR 1.200    0 0 0 1
O00170           CIRCULAR 1.200    0 0 0 1
O00171           CIRCULAR 1.200    0 0 0 1
O00172           CIRCULAR 1.200    0 0 0 1
O00173           CIRCULAR 1.200    0 0 0 1
O00174           CIRCULAR 1.200    0 0 0 1
O00175           CIRCULAR 1.200    0 0 0 1
O00176           CIRCULAR 1.200    0 0 0 1
O00177           CIRCULAR 1.200    0 0 0 1
O00178           CIRCULAR 1.200    0 0 0 1
O00179           CIRCULAR 1.200    0 0 0 1
O00180           CIRCULAR 1.200    0 0 0 1
O00181           CIRCULAR 1.200    0 0 0 1
O00182           CIRCULAR 1.200    0 0 0 1
O00183           CIRCULAR 1.200    0 0 0 1
O00184           CIRCULAR 1.200    0 0 0 1
O00185           CIRCULAR 1.200    0 0 0 1
O00186           CIRCULAR 1.200    0 0 0 1
O00187           CIRCULAR 1.200    0 0 0 1
O00188           CIRCULAR 1.200    0 0 0 1
O00189           CIRCULAR 1.200    0 0 0 1
O00190           CIRCULAR 1.200    0 0 0 1
O00191           CIRCULAR 1.200    0 0 0 1
O00192           CIRCULAR 1.200    0 0 0 1
O00193           CIRCULAR 1.200    0 0 0 1
O00194           CIRCULAR 1.200    0 0 0 1
O00195           CIRCULAR 1.200    0 0 0 1
O00196           CIRCULAR 1.200    0 0 0 1
O00197           CIRCULAR 1.200    0 0 0 1
O00198           CIRCULAR 1.200    0 0 0 1
O00199           CIRCULAR 1.200    0 0 0 1
O00200           CIRCULAR 1.200    0 0 0 1
O00201           CIRCULAR 1.200    0 0 0 1
O00202           CIRCULAR 1.200    0 0 0 1
O00203           CIRCULAR 1.200    0 0 0 1
O00204           CIRCULAR 1.200    0 0 0 1
O00205           CIRCULAR 1.200    0 0 0 1
O00206           CIRCULAR 1.200    0 0 0 1
O00207           CIRCULAR 1.200    0 0 0 1
O00208           CIRCULAR 1.200    0 0 0 1
O00209           CIRCULAR 1.200    0 0 0 1
O00210           CIRCULAR 1.200    0 0 0 1
O00211           CIRCULAR 1.200    0 0 0 1
O00212           CIRCULAR 1.200    0 0 0 1
O00213           CIRCULAR 1.200    0 0 0 1
O00214           CIRCULAR 1.200    0 0 0 1
O00215           CIRCULAR 1.200    0 0 0 1
O00216           CIRCULAR 1.200    0 0 0 1
O00217           CIRCULAR 1.200    0 0 0 1
O00218           CIRCULAR 1.200    0 0 0 1
O00219           CIRCULAR 1.200    0 0 0 1
O00220           CIRCULAR 1.200    0 0 0 1
O00221           CIRCULAR 1.200    0 0 0 1
O00222           CIRCULAR 1.200    0 0 0 1
O00223           CIRCULAR 1.200    0 0 0 1
O00224           CIRCULAR 1.200    0 0 0 1
O00225           CIRCULAR 1.200    0 0 0 1
O00226           CIRCULAR 1.200    0 0 0 1
O00227           CIRCULAR 1.200    0 0 0 1
O00228           CIRCULAR 1.200    0 0 0 1
O00229           CIRCULAR 1.200    0 0 0 1
O00230           CIRCULAR 1.200    0 0 0 1
O00231           CIRCULAR 1.200    0 0 0 1
O00232           CIRCULAR 1.200    0 0 0 1
O00233           CIRCULAR 1.200    0 0 0 1
O00234           CIRCULAR 1.200    0 0 0 1
O00235           CIRCULAR 1.200    0 0 0 1
O00236           CIRCULAR 1.200    0 0 0 1
O00237           CIRCULAR 1.200    0 0 0 1
O00238           CIRCULAR 1.200    0 0 0 1
O00239           CIRCULAR 1.200    0 0 0 1
O00240           CIRCULAR 1.200    0 0 0 1
O00241           CIRCULAR 1.200    0 0 0 1
O00242           CIRCULAR 1.200    0 0 0 1
O00243           CIRCULAR 1.200    0 0 0 1
O00244           CIRCULAR 1.200    0 0 0 1
O00245           CIRCULAR 1.200    0 0 0 1
O00246           CIRCULAR 1.200    0 0 0 1
O00247           CIRCULAR 1.200    0 0 0 1
O00248           CIRCULAR 1.200    0 0 0 1
O00249           CIRCULAR 1.200    0 0 0 1
O00250           CIRCULAR 1.200    0 0 0 1
O00251           CIRCULAR 1.200    0 0 0 1
O00252           CIRCULAR 1.200    0 0 0 1
O00253           CIRCULAR 1.200    0 0 0 1
O00254           CIRCULAR 1.200    0 0 0 1
O00255           CIRCULAR 1.200    0 0 0 1
O00256           CIRCULAR 1.200    0 0 0 1
O00257           CIRCULAR 1.200    0 0 0 1
O00258           CIRCULAR 1.200    0 0 0 1
O00259           CIRCULAR 1.200    0 0 0 1
O00260           CIRCULAR 1.200    0 0 0 1
O00261           CIRCULAR 1.200    0 0 0 1
O00262           CIRCULAR 1.200    0 0 0 1
O00263           CIRCULAR 1.200    0 0 0 1
O00264           CIRCULAR 1.200    0 0 0 1
O00265           CIRCULAR 1.200    0 0 0 1
O00266           CIRCULAR 1.200    0 0 0 1
O00267           CIRCULAR 1.200    0 0 0 1
O00268           CIRCULAR 1.200    0 0 0 1
O00269           CIRCULAR 1.200    0 0 0 1
O00270           CIRCULAR 1.200    0 0 0 1
O00271           CIRCULAR 1.200    0 0 0 1
O00272           CIRCULAR 1.200    0 0 0 1
O00273           CIRCULAR 1.200    0 0 0 1
O00274           CIRCULAR 1.200    0 0 0 1
O00275           CIRCULAR 1.200    0 0 0 1
O00276           CIRCULAR 1.200    0 0 0 1
O00277           CIRCULAR 1.200    0 0 0 1
O00278           CIRCULAR 1.200    0 0 0 1
O00279           CIRCULAR 1.200    0 0 0 1
O00280           CIRCULAR 1.200    0 0 0 1
O00281           CIRCULAR 1.200    0 0 0 1
O00282           CIRCULAR 1.200    0 0 0 1
O00283           CIRCULAR 1.200    0 0 0 1
O00284           CIRCULAR 1.200    0 0 0 1
O00285           CIRCULAR 1.200    0 0 0 1
O00286           CIRCULAR 1.200    0 0 0 1
O00287           CIRCULAR 1.200    0 0 0 1
O00288           CIRCULAR 1.200    0 0 0 1
O00289           CIRCULAR 1.200    0 0 0 1
O00290           CIRCULAR 1.200    0 0 0 1
O00291           CIRCULAR 1.200    0 0 0 1
O00292           CIRCULAR 1.200    0 0 0 1
O00293           CIRCULAR 1.200    0 0 0 1
O00294           CIRCULAR 1.200    0 0 0 1
O00295           CIRCULAR 1.200    0 0 0 1
O00296           CIRCULAR 1.200    0 0 0 1
O00297           CIRCULAR 1.200    0 0 0 1
O00298           CIRCULAR 1.200    0 0 0 1
O00299           CIRCULAR 1.200    0 0 0 1
O00300           CIRCULAR 1.200    0 0 0 1
O00301           CIRCULAR 1.200    0 0 0 1
O00302           CIRCULAR 1.200    0 0 0 1
O00303           CIRCULAR 1.200    0 0 0 1
O00304           CIRCULAR 1.200    0 0 0 1
O00305           CIRCULAR 1.200    0 0 0 1
O00306           CIRCULAR 1.200    0 0 0 1
O00307           CIRCULAR 1.200    0 0 0 1
O00308           CIRCULAR 1.200    0 0 0 1
O00309           CIRCULAR 1.200    0 0 0 1
O00310           CIRCULAR 1.200    0 0 0 1
O00311           CIRCULAR 1.200    0 0 0 1
O00312           CIRCULAR 1.200    0 0 0 1
O00313           CIRCULAR 1.200    0 0 0 1
O00314           CIRCULAR 1.200    0 0 0 1
O00315           CIRCULAR 1.200    0 0 0 1
O00316           CIRCULAR 1.200    0 0 0 1
O00317           CIRCULAR 1.200    0 0 0 1
O00318           CIRCULAR 1.200    0 0 0 1
O00319           CIRCULAR 1.200    0 0 0 1
O00320           CIRCULAR 1.200    0 0 0 1
O00321           CIRCULAR 1.200    0 0 0 1
O00322           CIRCULAR 1.200    0 0 0 1
O00323           CIRCULAR 1.200    0 0 0 1
O00324           CIRCULAR 1.200    0 0 0 1
O00325           CIRCULAR 1.200    0 0 0 1
O00326           CIRCULAR 1.200    0 0 0 1
O00327           CIRCULAR 1.200    0 0 0 1
O00328           CIRCULAR 1.200    0 0 0 1
O00329           CIRCULAR 1.200    0 0 0 1
O00330           CIRCULAR 1.200    0 0 0 1
O00331           CIRCULAR 1.200    0 0 0 1
O00332           CIRCULAR 1.200    0 0 0 1
O00333           CIRCULAR 1.200    0 0 0 1
O00334           CIRCULAR 1.200    0 0 0 1
O00335           CIRCULAR 1.200    0 0 0 1
O00336           CIRCULAR 1.200    0 0 0 1
O00337           CIRCULAR 1.200    0 0 0 1
O00338           CIRCULAR 1.200    0 0 0 1
O00339           CIRCULAR 1.200    0 0 0 1
O00340           CIRCULAR 1.200    0 0 0 1
O00341           CIRCULAR 1.200    0 0 0 1
O00342           CIRCULAR 1.200    0 0 0 1
O00343           CIRCULAR 1.200    0 0 0 1
O00344           CIRCULAR 1.200    0 0 0 1
O00345           CIRCULAR 1.200    0 0 0 1
O00346           CIRCULAR 1.200    0 0 0 1
O00347           CIRCULAR 1.200    0 0 0 1
O00348           CIRCULAR 1.200    0 0 0 1
O00349           CIRCULAR 1.200    0 0 0 1
O00350           CIRCULAR 1.200    0 0 0 1
O00351           CIRCULAR 1.200    0 0 0 1
O00352           CIRCULAR 1.200    0 0 0 1
O00353           CIRCULAR 1.200    0 0 0 1
O00354           CIRCULAR 1.200    0 0 0 1
O00355           CIRCULAR 1.200    0 0 0 1
O00356           CIRCULAR 1.200    0 0 0 1
O00357           CIRCULAR 1.200    0 0 0 1
O00358           CIRCULAR 1.200    0 0 0 1
O00359           CIRCULAR 1.200    0 0 0 1
O00360           CIRCULAR 1.200    0 0 0 1
O00361           CIRCULAR 1.200    0 0 0 1
O00362           CIRCULAR 1.200    0 0 0 1
O00363           CIRCULAR 1.200    0 0 0 1
O00364           CIRCULAR 1.200    0 0 0 1
O00365           CIRCULAR 1.200    0 0 0 1
O00366           CIRCULAR 1.200    0 0 0 1
O00367           CIRCULAR 1.200    0 0 0 1
O00368           CIRCULAR 1.200    0 0 0 1
O00369           CIRCULAR 1.200    0 0 0 1
O00370           CIRCULAR 1.200    0 0 0 1
O00371           CIRCULAR 1.200    0 0 0 1
O00372           CIRCULAR 1.200    0 0 0 1
O00373           CIRCULAR 1.200    0 0 0 1
O00374           CIRCULAR 1.200    0 0 0 1
O00375           CIRCULAR 1.200    0 0 0 1
O00376           CIRCULAR 1.200    0 0 0 1
O00377           CIRCULAR 1.200    0 0 0 1
O00378           CIRCULAR 1.200    0 0 0 1
O00379           CIRCULAR 1.200    0 0 0 1
O00380           CIRCULAR 1.200    0 0 0 1
O00381           CIRCULAR 1.200    0 0 0 1
O00382           CIRCULAR 1.200    0 0 0 1
O00383           CIRCULAR 1.200    0 0 0 1
O00384           CIRCULAR 1.200    0 0 0 1
O00385           CIRCULAR 1.200    0 0 0 1
O00386           CIRCULAR 1.200    0 0 0 1
O00387           CIRCULAR 1.200    0 0 0 1
O00388           CIRCULAR 1.200    0 0 0 1
O00389           CIRCULAR 1.200    0 0 0 1
O00390           CIRCULAR 1.200    0 0 0 1
O00391           CIRCULAR 1.200    0 0 0 1
O00392           CIRCULAR 1.200    0 0 0 1
O00393           CIRCULAR 1.200    0 0 0 1
O00394           CIRCULAR 1.200    0 0 0 1
O00395           CIRCULAR 1.200    0 0 0 1
O00396           CIRCULAR 1.200    0 0 0 1
O00397           CIRCULAR 1.200    0 0 0 1
O00398           CIRCULAR 1.200    0 0 0 1
O00399           CIRCULAR 1.200    0 0 0 1
O00400           CIRCULAR 1.200    0 0 0 1
O00401           CIRCULAR 1.200    0 0 0 1
O00402           CIRCULAR 1.200    0 0 0 1
O00403           CIRCULAR 1.200    0 0 0 1
O00404           CIRCULAR 1.200    0 0 0 1
O00405           CIRCULAR 1.200    0 0 0 1
O00406           CIRCULAR 1.200    0 0 0 1
O00407           CIRCULAR 1.200    0 0 0 1
O00408           CIRCULAR 1.200    0 0 0 1
O00409           CIRCULAR 1.200    0 0 0 1
O00410           CIRCULAR 1.200    0 0 0 1
O00411           CIRCULAR 1.200    0 0 0 1
O00412           CIRCULAR 1.200    0 0 0 1
O00413           CIRCULAR 1.200    0 0 0 1
O00414           CIRCULAR 1.200    0 0 0 1
O00415           CIRCULAR 1.200    0 0 0 1
O00416           CIRCULAR 1.200    0 0 0 1
O00417           CIRCULAR 1.200    0 0 0 1
O00418           CIRCULAR 1.200    0 0 0 1
O00419           CIRCULAR 1.200    0 0 0 1
O00420           CIRCULAR 1.200    0 0 0 1
O00421           CIRCULAR 1.200    0 0 0 1
O00422           CIRCULAR 1.200    0 0 0 1
O00423           CIRCULAR 1.200    0 0 0 1
O00424           CIRCULAR 1.200    0 0 0 1
O00425           CIRCULAR 1.200    0 0 0 1
O00426           CIRCULAR 1.200    0 0 0 1
O00427           CIRCULAR 1.200    0 0 0 1
O00428           CIRCULAR 1.200    0 0 0 1
O00429           CIRCULAR 1.200    0 0 0 1
O00430           CIRCULAR 1.200    0 0 0 1
O00431           CIRCULAR 1.200    0 0 0 1
O00432           CIRCULAR 1.200    0 0 0 1
O00433           CIRCULAR 1.200    0 0 0 1
O00434           CIRCULAR 1.200    0 0 0 1
O00435           CIRCULAR 1.200    0 0 0 1
O00436           CIRCULAR 1.200    0 0 0 1
O00437           CIRCULAR 1.200    0 0 0 1
O00438           CIRCULAR 1.200    0 0 0 1
O00439           CIRCULAR 1.200    0 0 0 1
O00440           CIRCULAR 1.200    0 0 0 1
O00441           CIRCULAR 1.200    0 0 0 1
O00442           CIRCULAR 1.200    0 0 0 1
O00443           CIRCULAR 1.200    0 0 0 1
O00444           CIRCULAR 1.200    0 0 0 1
O00445           CIRCULAR 1.200    0 0 0 1
O00446           CIRCULAR 1.200    0 0 0 1
O00447           CIRCULAR 1.200    0 0 0 1
O00448           CIRCULAR 1.200    0 0 0 1
O00449           CIRCULAR 1.200    0 0 0 1
O00450           CIRCULAR 1.200    0 0 0 1
O00451           CIRCULAR 1.200    0 0 0 1
O00452           CIRCULAR 1.200    0 0 0 1
O00453           CIRCULAR 1.200    0 0 0 1
O00454           CIRCULAR 1.200    0 0 0 1
O00455           CIRCULAR 1.200    0 0 0 1
O00456           CIRCULAR 1.200    0 0 0 1
O00457           CIRCULAR 1.200    0 0 0 1
O00458           CIRCULAR 1.200    0 0 0 1
O00459           CIRCULAR 1.200    0 0 0 1
O00460           CIRCULAR 1.200    0 0 0 1
O00461           CIRCULAR 1.200    0 0 0 1
O00462           CIRCULAR 1.200    0 0 0 1
O00463           CIRCULAR 1.200    0 0 0 1
O00464           CIRCULAR 1.200    0 0 0 1
O00465           CIRCULAR 1.200    0 0 0 1
O00466           CIRCULAR 1.200    0 0 0 1
O00467           CIRCULAR 1.200    0 0 0 1
O00468           CIRCULAR 1.200    0 0 0 1
O00469           CIRCULAR 1.200    0 0 0 1
O00470           CIRCULAR 1.200    0 0 0 1
O00471           CIRCULAR 1.200    0 0 0 1
O00472           CIRCULAR 1.200    0 0 0 1
O00473           CIRCULAR 1.200    0 0 0 1
O00474           CIRCULAR 1.200    0 0 0 1
O00475           CIRCULAR 1.200    0 0 0 1
O00476           CIRCULAR 1.200    0 0 0 1
O00477           CIRCULAR 1.200    0 0 0 1
O00478           CIRCULAR 1.200    0 0 0 1
O00479           CIRCULAR 1.200    0 0 0 1
O00480           CIRCULAR 1.200    0 0 0 1
O00481           CIRCULAR 1.200    0 0 0 1
O00482           CIRCULAR 1.200    0 0 0 1
O00483           CIRCULAR 1.200    0 0 0 1
O00484           CIRCULAR 1.200    0 0 0 1
O00485           CIRCULAR 1.200    0 0 0 1
O00486           CIRCULAR 1.200    0 0 0 1
O00487           CIRCULAR 1.200    0 0 0 1
O00488           CIRCULAR 1.200    0 0 0 1
O00489           CIRCULAR 1.200    0 0 0 1
O00490           CIRCULAR 1.200    0 0 0 1
O00491           CIRCULAR 1.200    0 0 0 1
O00492           CIRCULAR 1.200    0 0 0 1
O00493           CIRCULAR 1.200    0 0 0 1
O00494           CIRCULAR 1.200    0 0 0 1
O00495           CIRCULAR 1.200    0 0 0 1
O00496           CIRCULAR 1.200    0 0 0 1
O00497           CIRCULAR 1.200    0 0 0 1
O00498           CIRCULAR 1.200    0 0 0 1
O00499           CIRCULAR 1.200    0 0 0 1
O00500           CIRCULAR 1.200    0 0 0 1
O00501           CIRCULAR 1.200    0 0 0 1
O00502           CIRCULAR 1.200    0 0 0 1
O00503           CIRCULAR 1.200    0 0 0 1
O00504           CIRCULAR 1.200    0 0 0 1
O00505           CIRCULAR 1.200    0 0 0 1
O00506           CIRCULAR 1.200    0 0 0 1
O00507           CIRCULAR 1.200    0 0 0 1
O00508           CIRCULAR 1.200    0 0 0 1
O00509           CIRCULAR 1.200    0 0 0 1
O00510           CIRCULAR 1.200    0 0 0 1
O00511           CIRCULAR 1.200    0 0 0 1
O00512           CIRCULAR 1.200    0 0 0 1

[COORDINATES]
N00247           5590.000     2210.000    
N02135           7950.000     4410.000    
N01348           2910.000     2370.000    
N00700           2330.000     5530.000    
N00354           8070.000     3270.000    
N00064           650.000      2190.000    
N00487           5250.000     5670.000    
N02019           5730.000     5270.000    
N02821           4990.000     2330.000    
N01989           5030.000     4290.000    
N01121           5510.000     3930.000    
N01787           5630.000     2590.000    
N02828           6150.000     6850.000    
N00056           7410.000     4870.000    
N00889           7790.000     2830.000    
N02734           9390.000     5010.000    
N01998           5210.000     3910.000    
N00183           2010.000     2170.000    
N01721           6410.000     3030.000    
N02804           9490.000     5270.000    
N00802           3190.000     3030.000    
N02815           6970.000     3010.000    
N02655           2890.000     3790.000    
N01399           1490.000     2930.000    
N00533           9210.000     4810.000    
N01838           6530.000     4170.000    
N01387           2710.000     1730.000    
N02570           7070.000     6430.000    
N00173           3150.000     2330.000    
N01928           3770.000     2190.000    
N02532           1390.000     4590.000    
N00380           7350.000     1830.000    
N01855           6910.000     3690.000    
N00298           5670.000     3390.000    
N02142           7590.000     3890.000    
N00554           6610.000     5650.000    
N00325           6870.000     2310.000    
N01024           930.000      2910.000    
N01073           5530.000     4850.000    
N02818           7370.000     2650.000    
N00458           6690.000     5690.000    
N00780           4950.000     5870.000    
N02307           7570.000     6990.000    
N00227           5550.000     2130.000    
N00197           4790.000     1210.000    
N02127           7970.000     5090.000    
N00225           4270.000     2050.000    
N01576           5810.000     2710.000    
N01922           5090.000     3450.000    
N00365           8110.000     3350.000    
N02803           9690.000     5530.000    
N01003           5930.000     5450.000    
N01892           4930.000     4250.000    
N02365           6950.000     1470.000    
N00850           6010.000     6050.000    
N02102           2590.000     5110.000    
N00001           590.000      2190.000    
N01112           5750.000     3750.000    
N01857           7130.000     3450.000    
N01254           8030.000     5090.000    
N00686           3530.000     3890.000    
N01798           5750.000     3950.000    
N02253           4350.000     6330.000    
N00705           1950.000     4830.000    
N02383           4770.000     390.000     
N00071           8070.000     2030.000    
N01648           930.000      2250.000    
N02637           8570.000     5070.000    
N00681           4270.000     4090.000    
N02326           6610.000     630.000     
N01637           5550.000     130.000     
N02639           2770.000     3790.000    
N00281           5590.000     3390.000    
N02544           6050.000     6150.000    
N02659           2510.000     3290.000    
N01464           2250.000     2850.000    
N01632           2630.000     1990.000    
N00338           7390.000     3890.000    
N02023           5710.000     5270.000    
N00592           10530.000    6070.000    
N01052           1350.000     4210.000    
N02372           6890.000     1830.000    
N01628           4930.000     710.000     
N00988           5490.000     5970.000    
N00485           5110.000     5750.000    
N01307           1210.000     2870.000    
N01868           7130.000     3670.000    
N02701           6970.000     3370.000    
N01381           7070.000     510.000     
N01734           6590.000     2770.000    
N00655           5990.000     350.000     
N00652           6830.000     370.000     
N01511           9830.000     5730.000    
N01792           5850.000     3670.000    
N00531           9110.000     4670.000    
N02530           1550.000     4550.000    
N00287           6930.000     3310.000    
N00132           4770.000     290.000     
N01211           7390.000     6970.000    
N01425           6270.000     3950.000    
N00928           150.000      3890.000    
N00345           7310.000     2510.000    
N01501           6850.000     2270.000    
N00985           5950.000     6030.000    
N00798           3190.000     2690.000    
N01999           5250.000     3790.000    
N02688           2110.000     3950.000    
N00070           6950.000     2070.000    
N02604           7750.000     3350.000    
N00876           7170.000     3690.000    
N02316           6870.000     2270.000    
N00914           170.000      2750.000    
N01614           5950.000     170.000     
N02547           6530.000     6250.000    
N00006           1890.000     2170.000    
N00990           6590.000     5910.000    
N02518           3370.000     2850.000    
N02095           2950.000     5070.000    
N00110           2450.000     2650.000    
N01436           6210.000     3650.000    
N01609           7830.000     1670.000    
N01854           6910.000     3910.000    
N02125           7950.000     4750.000    
N01276           2810.000     4730.000    
N02332           6410.000     890.000     
N00103           2090.000     2350.000    
N01713           6170.000     2850.000    
N00288           6890.000     3350.000    
N01903           4550.000     3370.000    
N01023           510.000      2870.000    
N00445           8150.000     6350.000    
N00892           6350.000     1210.000    
N01124           7050.000     5570.000    
N02583           9470.000     5250.000    
N00361           7830.000     3310.000    
N02278           6590.000     6010.000    
N00923           970.000      2870.000    
N02535           1390.000     4550.000    
N00875           7370.000     3790.000    
N01463           2350.000     2730.000    
N01653           3110.000     2330.000    
N01753           7110.000     2310.000    
N01294           6610.000     2110.000    
N01580           4970.000     4990.000    
N01681           5810.000     2210.000    
N02633           9550.000     5050.000    
N00276           5410.000     3370.000    
N00404           6090.000     570.000     
N00266           6190.000     2050.000    
N00573           10230.000    5290.000    
N01497           8110.000     2050.000    
N02313           7370.000     2230.000    
N02622           3230.000     2370.000    
N00228           5750.000     2110.000    
N00608           790.000      4190.000    
N01963           4950.000     3450.000    
N01712           6190.000     2590.000    
N00869           4730.000     310.000     
N00391           7990.000     2150.000    
N01026           2090.000     2630.000    
N01924           5050.000     3430.000    
N00175           3190.000     2370.000    
N00118           2050.000     3130.000    
N01374           1810.000     2190.000    
N00323           3190.000     3750.000    
N02080           2270.000     3350.000    
N02345           5790.000     770.000     
N02017           5370.000     5050.000    
N00491           5170.000     6030.000    
N01312           530.000      2490.000    
N01119           5490.000     3050.000    
N01951           3210.000     2530.000    
N00339           7870.000     3190.000    
N02304           7330.000     7030.000    
N00452           7430.000     5010.000    
N02246           4110.000     6250.000    
N01295           6410.000     2110.000    
N02740           9110.000     5050.000    
N01253           7590.000     5110.000    
N00980           7950.000     3850.000    
N01865           7150.000     3690.000    
N01988           5070.000     4310.000    
N01490           7290.000     2190.000    
N01328           7370.000     6150.000    
N00425           7310.000     5270.000    
N01281           1730.000     5110.000    
N00277           5370.000     3410.000    
N02769           7390.000     2730.000    
N00628           7850.000     1670.000    
N01878           4670.000     2150.000    
N02533           1370.000     4250.000    
N01899           5070.000     3410.000    
N00219           5390.000     2150.000    
N00216           5450.000     1970.000    
N01687           5610.000     2350.000    
N01133           7910.000     2930.000    
N02061           2510.000     4270.000    
N02025           4590.000     4950.000    
N00147           2090.000     3030.000    
N00152           2430.000     2110.000    
N00349           7870.000     3290.000    
N02468           7470.000     4370.000    
N02312           7390.000     2070.000    
N00643           5290.000     150.000     
N01550           8010.000     5550.000    
N00745           8950.000     4550.000    
N02271           6610.000     6690.000    
N00196           4970.000     1090.000    
N01718           6610.000     3010.000    
N00989           5350.000     5950.000    
N01755           6910.000     2530.000    
N01367           4110.000     3310.000    
N01563           9850.000     5770.000    
N02371           6950.000     1510.000    
N01482           3290.000     2290.000    
N01895           5510.000     5110.000    
N02085           8310.000     2870.000    
N02067           2370.000     4510.000    
N01541           5330.000     2090.000    
N01355           5450.000     2770.000    
N01407           1230.000     2910.000    
N00278           5470.000     3130.000    
N00800           2850.000     2990.000    
N01733           6390.000     2770.000    
N01817           6070.000     3710.000    
N01480           4310.000     1810.000    
N01298           6330.000     2130.000    
N02723           9190.000     4810.000    
N02663           2750.000     3530.000    
N01456           8290.000     2610.000    
N00568           7430.000     6510.000    
N02310           7130.000     7010.000    
N01255           7970.000     5030.000    
N00104           2550.000     2330.000    
N02614           6850.000     3670.000    
N00539           7450.000     5430.000    
N01206           8390.000     4270.000    
N00412           5530.000     4370.000    
N01060           970.000      4190.000    
N00321           3130.000     4110.000    
N01347           2930.000     2330.000    
N01549           7650.000     2790.000    
N00318           2670.000     4950.000    
N00678           5450.000     3830.000    
N02059           2570.000     4170.000    
N01089           1050.000     4210.000    
N02628           4510.000     2110.000    
N00650           6630.000     230.000     
N02675           2330.000     3090.000    
N01636           5210.000     190.000     
N02463           6990.000     4370.000    
N01091           4990.000     6170.000    
N01082           7350.000     1730.000    
N00711           2210.000     5530.000    
N02258           4430.000     6050.000    
N02259           4450.000     6230.000    
N00797           3170.000     2870.000    
N00142           2070.000     2690.000    
N02782           6170.000     5990.000    
N02542           6070.000     6630.000    
N02148           3310.000     3130.000    
N01516           770.000      2250.000    
N02314           6990.000     2090.000    
N00649           6090.000     70.000      
N02634           9450.000     5030.000    
N01299           6730.000     2070.000    
N02439           1070.000     2550.000    
N01257           4510.000     4130.000    
N00016           6870.000     2090.000    
N00302           5790.000     3330.000    
N02541           7430.000     890.000     
N01453           6070.000     3310.000    
N01414           2970.000     4410.000    
N02111           7990.000     5190.000    
N01308           1250.000     2630.000    
N01025           2090.000     2610.000    
N01591           6030.000     6710.000    
N00606           1230.000     4190.000    
N02546           6210.000     6250.000    
N00602           1970.000     4990.000    
N01019           510.000      2850.000    
N00964           3370.000     2250.000    
N00483           5550.000     5930.000    
N02819           7410.000     2750.000    
N00249           5490.000     2050.000    
N00310           6010.000     3490.000    
N02330           6130.000     570.000     
N01890           4790.000     4190.000    
N01070           5230.000     4570.000    
N02471           7890.000     4290.000    
N01818           5610.000     4390.000    
N00597           10010.000    5810.000    
N02702           6990.000     3390.000    
N02678           2710.000     3530.000    
N00575           8550.000     6530.000    
N00778           1670.000     4530.000    
N00848           3850.000     6550.000    
N00610           470.000      4050.000    
N01634           4730.000     370.000     
N00437           7990.000     6450.000    
N01519           8150.000     3310.000    
N02687           2190.000     3730.000    
N01058           1850.000     4690.000    
N01766           6870.000     2770.000    
N02244           3970.000     6510.000    
N00004           2350.000     2270.000    
N01767           6870.000     2530.000    
N02446           7350.000     2730.000    
N01250           7390.000     7110.000    
N02112           7990.000     5350.000    
N02846           8150.000     2830.000    
N02016           5050.000     4850.000    
N00630           6250.000     150.000     
N00177           2470.000     2310.000    
N02212           7390.000     3450.000    
N02092           2910.000     5070.000    
N00363           7990.000     3330.000    
N01819           6870.000     4350.000    
N02812           7410.000     3270.000    
N01544           5390.000     790.000     
N01624           7230.000     970.000     
N02485           3470.000     2410.000    
N00033           6770.000     6010.000    
N01481           4250.000     1590.000    
N02830           6630.000     6730.000    
N01844           6190.000     3910.000    
N02129           7910.000     4310.000    
N00782           710.000      4170.000    
N01494           6890.000     1850.000    
N02465           7450.000     5450.000    
N00832           7330.000     770.000     
N00246           5470.000     2210.000    
N02653           3170.000     3830.000    
N02370           7030.000     1050.000    
N01303           9390.000     5290.000    
N01081           7330.000     1630.000    
N00994           5630.000     6050.000    
N00926           190.000      2930.000    
N01920           4170.000     3330.000    
N01515           890.000      2270.000    
N01115           6350.000     3350.000    
N02279           6570.000     6010.000    
N02416           290.000      4030.000    
N00787           7110.000     810.000     
N00351           7910.000     3350.000    
N00670           70.000       3890.000    
N01051           930.000      4150.000    
N02545           5870.000     6310.000    
N00770           10570.000    6030.000    
N00313           2390.000     5590.000    
N00406           5630.000     670.000     
N00025           5910.000     6030.000    
N02408           5510.000     6330.000    
N01706           5830.000     2810.000    
N00178           3710.000     2170.000    
N00366           8010.000     3470.000    
N01395           270.000      1830.000    
N00496           5210.000     5890.000    
N02706           3410.000     2750.000    
N00492           5230.000     5970.000    
N02827           6090.000     6710.000    
N01510           9750.000     5590.000    
N00261           6170.000     2150.000    
N02413           8430.000     6430.000    
N02164           8850.000     4370.000    
N00223           3510.000     2250.000    
N01642           5970.000     150.000     
N02670           2770.000     3330.000    
N00806           4510.000     1770.000    
N02149           3330.000     2990.000    
N00927           90.000       3830.000    
N01046           1570.000     4310.000    
N00488           5430.000     5250.000    
N02006           5210.000     4510.000    
N01800           5830.000     3970.000    
N02679           2450.000     3750.000    
N00388           7970.000     2010.000    
N00441           7750.000     6330.000    
N01504           7370.000     6710.000    
N01832           6910.000     4150.000    
N00904           5550.000     690.000     
N01163           5990.000     270.000     
N00194           3870.000     2110.000    
N02009           5230.000     4890.000    
N00834           7130.000     550.000     
N02531           1390.000     4610.000    
N02814           7350.000     3110.000    
N00176           2710.000     2370.000    
N01214           7650.000     6630.000    
N01272           3410.000     2670.000    
N00358           8130.000     3310.000    
N00887           7210.000     4150.000    
N00979           7930.000     3670.000    
N02820           4850.000     2250.000    
N01442           6390.000     3990.000    
N00088           6670.000     350.000     
N01016           1250.000     2590.000    
N01723           6830.000     3010.000    
N01127           7890.000     2930.000    
N02755           5510.000     4370.000    
N01459           10430.000    6010.000    
N00934           6810.000     430.000     
N02121           8430.000     5050.000    
N01627           7050.000     830.000     
N00505           4850.000     5890.000    
N01668           7950.000     5230.000    
N02163           8810.000     4290.000    
N00343           7990.000     3510.000    
N00724           1270.000     2530.000    
N01916           3730.000     3290.000    
N00330           8230.000     3310.000    
N01645           310.000      1970.000    
N01304           9370.000     5330.000    
N00704           3070.000     4190.000    
N00646           5710.000     110.000     
N00174           3590.000     2250.000    
N00490           5170.000     5950.000    
N02488           7070.000     1430.000    
N02355           6090.000     990.000     
N02103           2530.000     5110.000    
N01943           2890.000     2830.000    
N01341           3730.000     3230.000    
N01996           5450.000     3970.000    
N00820           5210.000     2110.000    
N00791           2410.000     5570.000    
N01072           5510.000     5030.000    
N00793           3090.000     2330.000    
N01700           7130.000     2750.000    
N01040           2690.000     5110.000    
N00635           6030.000     50.000      
N01271           3910.000     2090.000    
N00443           7990.000     6190.000    
N02661           2770.000     3350.000    
N00830           5150.000     3390.000    
N00148           2210.000     2770.000    
N00552           5930.000     5410.000    
N02700           7450.000     3350.000    
N00565           9050.000     4250.000    
N00206           3410.000     3190.000    
N01488           7330.000     1810.000    
N02680           2450.000     3730.000    
N00777           1450.000     4290.000    
N01699           6950.000     2750.000    
N02605           5050.000     1010.000    
N02156           8790.000     4110.000    
N01923           3770.000     3090.000    
N02557           6470.000     6870.000    
N01386           2830.000     1630.000    
N00633           6550.000     210.000     
N00826           5090.000     2410.000    
N00316           2590.000     5230.000    
N00614           3290.000     5090.000    
N02213           7390.000     3570.000    
N01744           6830.000     2090.000    
N00162           2510.000     3110.000    
N01146           8390.000     6390.000    
N00182           3790.000     2110.000    
N00590           10030.000    5710.000    
N00618           2250.000     5090.000    
N01037           5610.000     3390.000    
N00386           7850.000     1810.000    
N02122           7710.000     5090.000    
N01277           2630.000     5030.000    
N02487           3450.000     2630.000    
N01047           1690.000     4430.000    
N01252           7750.000     5110.000    
N00112           2450.000     2110.000    
N02169           8770.000     4290.000    
N00682           4010.000     4010.000    
N02055           4270.000     4070.000    
N02613           6890.000     3910.000    
N00306           6350.000     3450.000    
N01538           5590.000     2150.000    
N02841           5490.000     6330.000    
N01761           7250.000     2510.000    
N01435           6210.000     3630.000    
N01354           1710.000     4710.000    
N00254           6130.000     2050.000    
N00453           7510.000     5110.000    
N00262           6170.000     2270.000    
N01458           10130.000    5950.000    
N00774           6050.000     6850.000    
N02118           7970.000     4610.000    
N01069           4730.000     5790.000    
N00572           7550.000     6310.000    
N02412           8370.000     6550.000    
N02119           7970.000     4990.000    
N02178           2950.000     1590.000    
N00236           6390.000     130.000     
N02175           2590.000     2130.000    
N00244           5350.000     2110.000    
N02780           5130.000     6050.000    
N00270           6290.000     2090.000    
N00135           5050.000     170.000     
N02140           7950.000     4710.000    
N01638           5390.000     150.000     
N01248           5350.000     170.000     
N01815           5870.000     3990.000    
N02208           6810.000     3350.000    
N02794           7970.000     5870.000    
N00429           7950.000     6350.000    
N01100           8130.000     2090.000    
N02507           10070.000    5710.000    
N01728           6830.000     2770.000    
N01711           6190.000     2990.000    
N01762           7230.000     2330.000    
N01823           5530.000     4430.000    
N01292           6330.000     2150.000    
N00713           2550.000     5330.000    
N01526           7970.000     5190.000    
N00416           6250.000     4410.000    
N01022           690.000      2890.000    
N02519           2610.000     3130.000    
N01487           7350.000     1930.000    
N02502           7010.000     5610.000    
N02366           6970.000     1370.000    
N00648           6250.000     90.000      
N00974           3350.000     5070.000    
N02539           7390.000     930.000     
N02104           2590.000     5150.000    
N01704           5550.000     2850.000    
N00101           2150.000     2250.000    
N02741           9330.000     4930.000    
N02647           2710.000     3790.000    
N01296           6450.000     2130.000    
N02249           4410.000     6050.000    
N01315           1310.000     2610.000    
N01266           3270.000     3830.000    
N00680           3130.000     3810.000    
N02676           2470.000     3670.000    
N01690           5570.000     3050.000    
N01836           6130.000     3950.000    
N00117           2110.000     3010.000    
N01508           8750.000     4150.000    
N00710           2950.000     4490.000    
N00439           8090.000     6350.000    
N02484           3410.000     2550.000    
N00430           7930.000     6470.000    
N01396           270.000      1970.000    
N01827           6210.000     3730.000    
N02587           10370.000    5890.000    
N00329           7310.000     1870.000    
N01402           1750.000     2950.000    
N02328           6450.000     590.000     
N02627           4310.000     2070.000    
N01366           4030.000     3270.000    
N01001           6910.000     6030.000    
N01147           8450.000     6510.000    
N01737           6670.000     3010.000    
N02686           1950.000     4230.000    
N01796           5550.000     4010.000    
N02168           8810.000     4270.000    
N00098           1870.000     2190.000    
N02689           1710.000     4390.000    
N00992           5910.000     5970.000    
N01009           5690.000     5270.000    
N02643           3190.000     3910.000    
N00555           6910.000     5670.000    
N00384           7770.000     1910.000    
N01596           9830.000     5690.000    
N02623           3150.000     2350.000    
N01607           7250.000     2190.000    
N01514           1090.000     2290.000    
N00709           3010.000     4370.000    
N01429           6910.000     4130.000    
N00540           7250.000     5350.000    
N00282           5490.000     3530.000    
N02100           2270.000     5110.000    
N02719           3290.000     3370.000    
N01945           2490.000     2590.000    
N00854           7210.000     5430.000    
N02072           2710.000     3730.000    
N01290           7470.000     2750.000    
N01790           5830.000     2570.000    
N01164           5990.000     50.000      
N02014           5350.000     4690.000    
N02696           2890.000     3350.000    
N01906           4810.000     3370.000    
N00794           2910.000     2390.000    
N02309           7670.000     6930.000    
N00671           310.000      3970.000    
N01830           6610.000     3710.000    
N01015           1270.000     2590.000    
N00123           2190.000     2150.000    
N00809           4290.000     2030.000    
N02748           490.000      4010.000    
N01898           5470.000     5150.000    
N01364           2570.000     5250.000    
N02766           7350.000     2770.000    
N00319           2790.000     4730.000    
N00267           6150.000     2050.000    
N00239           5630.000     2090.000    
N02417           250.000      3970.000    
N02046           5170.000     5070.000    
N00369           7270.000     750.000     
N01861           7170.000     4330.000    
N01994           5470.000     4330.000    
N00901           5110.000     970.000     
N02677           2530.000     3490.000    
N01930           3690.000     2930.000    
N00426           7410.000     5110.000    
N00817           3930.000     2130.000    
N02174           2650.000     1990.000    
N00324           3230.000     3610.000    
N01400           1510.000     2750.000    
N02721           5790.000     6310.000    
N01814           5870.000     4210.000    
N00687           3850.000     3950.000    
N02448           8850.000     5070.000    
N02005           5070.000     4550.000    
N02070           2190.000     4750.000    
N02248           4270.000     6030.000    
N00360           7930.000     3450.000    
N01457           8370.000     3310.000    
N00607           990.000      4190.000    
N01635           5370.000     150.000     
N02576           4970.000     750.000     
N00574           10290.000    5150.000    
N02529           1590.000     4510.000    
N01048           1230.000     4130.000    
N02390           4330.000     1850.000    
N01968           5250.000     3670.000    
N00374           6770.000     330.000     
N00161           2030.000     2230.000    
N02731           9370.000     5070.000    
N01492           7110.000     2270.000    
N02219           5470.000     6450.000    
N00549           7390.000     5330.000    
N01727           6650.000     2570.000    
N01785           5470.000     2610.000    
N00795           2730.000     2370.000    
N01949           3350.000     2910.000    
N01908           4090.000     3270.000    
N00292           6190.000     3590.000    
N00541           7110.000     5530.000    
N02424           4570.000     3410.000    
N02524           1230.000     2850.000    
N00359           8030.000     3350.000    
N01339           3150.000     3930.000    
N00133           4850.000     250.000     
N01269           3190.000     2670.000    
N02517           3330.000     3130.000    
N02239           4670.000     6410.000    
N01118           6470.000     3450.000    
N01430           6910.000     3650.000    
N02843           6110.000     5970.000    
N00376           8050.000     2010.000    
N00357           7970.000     3290.000    
N02500           6470.000     850.000     
N01326           7350.000     6250.000    
N01786           5610.000     2570.000    
N01074           5510.000     4410.000    
N00198           3250.000     3210.000    
N01288           7970.000     5630.000    
N02717           7370.000     3470.000    
N01285           9190.000     5570.000    
N01935           4570.000     3430.000    
N02143           7950.000     3870.000    
N01811           5530.000     3750.000    
N01952           3190.000     2390.000    
N02590           10150.000    5710.000    
N02442           7370.000     2510.000    
N01970           4570.000     3630.000    
N01946           3350.000     2690.000    
N02504           7130.000     6150.000    
N01120           5730.000     3050.000    
N00255           6050.000     2010.000    
N02445           7370.000     2750.000    
N02779           5470.000     5990.000    
N00106           2410.000     2390.000    
N00401           6070.000     570.000     
N01912           3030.000     3170.000    
N01801           5850.000     3810.000    
N01338           5850.000     3610.000    
N01763           7110.000     2530.000    
N02306           7470.000     7030.000    
N01461           2470.000     3070.000    
N00022           6790.000     3350.000    
N00929           330.000      3950.000    
N01135           9130.000     5450.000    
N02290           7030.000     6670.000    
N01320           1450.000     2690.000    
N01358           6270.000     3410.000    
N00415           6910.000     4390.000    
N01259           4370.000     4810.000    
N00309           5670.000     3450.000    
N01871           7370.000     3650.000    
N01474           5170.000     950.000     
N00322           3170.000     3930.000    
N00675           6130.000     2170.000    
N02777           5630.000     5970.000    
N02514           4710.000     5870.000    
N02739           9330.000     5050.000    
N02743           4990.000     190.000     
N02642           3250.000     3570.000    
N01919           4370.000     3350.000    
N02703           7450.000     3310.000    
N02291           7310.000     6650.000    
N01907           4890.000     3390.000    
N02301           7110.000     6850.000    
N02475           3870.000     2090.000    
N02603           7370.000     2550.000    
N00451           7410.000     5090.000    
N02629           4310.000     2110.000    
N02088           8310.000     2750.000    
N01438           6250.000     3710.000    
N02047           4970.000     5050.000    
N00340           7910.000     3050.000    
N01701           7270.000     2750.000    
N01378           7410.000     4710.000    
N00779           1290.000     4230.000    
N00665           8010.000     6750.000    
N01054           1210.000     4150.000    
N01565           10030.000    5770.000    
N00909           6210.000     3030.000    
N00631           6030.000     150.000     
N01332           1930.000     5550.000    
N01090           6170.000     6290.000    
N01075           5530.000     5030.000    
N01896           5510.000     4350.000    
N01852           6910.000     4350.000    
N02641           3210.000     3590.000    
N02461           7390.000     5590.000    
N02798           9450.000     5210.000    
N02020           5210.000     5050.000    
N00958           2610.000     1990.000    
N00886           7390.000     4150.000    
N00647           5850.000     130.000     
N02464           7350.000     4330.000    
N02608           4390.000     1470.000    
N00116           2170.000     2910.000    
N02048           4870.000     5170.000    
N02381           4730.000     350.000     
N00013           670.000      2210.000    
N00124           2110.000     2170.000    
N02802           8250.000     3290.000    
N01345           2830.000     2330.000    
N01876           5410.000     2450.000    
N02618           7030.000     830.000     
N01465           2130.000     2790.000    
N00100           2350.000     2250.000    
N02191           4710.000     370.000     
N02044           4790.000     5290.000    
N02026           4710.000     5010.000    
N02476           7010.000     3910.000    
N01812           5750.000     3730.000    
N00694           2790.000     3350.000    
N01063           4530.000     6350.000    
N00532           9250.000     4850.000    
N02697           1770.000     3030.000    
N00438           8010.000     6230.000    
N02329           6290.000     570.000     
N00291           6190.000     3390.000    
N01891           4950.000     4230.000    
N01929           3490.000     2910.000    
N01874           3890.000     2150.000    
N01729           6670.000     2790.000    
N00337           7370.000     3510.000    
N00086           6810.000     690.000     
N00336           7370.000     3070.000    
N00290           6190.000     3090.000    
N02003           5230.000     4310.000    
N00350           7910.000     3430.000    
N02536           1430.000     4590.000    
N00128           2970.000     1510.000    
N01336           1910.000     5570.000    
N02010           4950.000     4690.000    
N00149           2330.000     2390.000    
N02317           7450.000     2030.000    
N01783           6170.000     2550.000    
N00179           3690.000     2050.000    
N01080           7310.000     1410.000    
N02120           8030.000     5070.000    
N01310           810.000      2530.000    
N02146           3330.000     3030.000    
N01522           7750.000     1410.000    
N00744           8770.000     4550.000    
N02052           4550.000     3670.000    
N01643           7330.000     1790.000    
N02275           6630.000     6370.000    
N01561           3770.000     3950.000    
N02720           3370.000     3030.000    
N01877           4650.000     2130.000    
N01468           2450.000     2410.000    
N00888           7790.000     2810.000    
N01560           3990.000     4010.000    
N02263           4210.000     6390.000    
N01746           6830.000     2310.000    
N02427           210.000      2370.000    
N02294           7910.000     6770.000    
N00105           2430.000     2350.000    
N01426           6850.000     3910.000    
N02612           6890.000     3970.000    
N01782           6370.000     2570.000    
N01213           7650.000     6790.000    
N02495           5930.000     50.000      
N00949           6950.000     7150.000    
N00143           2310.000     3030.000    
N02002           5350.000     4330.000    
N02522           1190.000     3070.000    
N02725           8470.000     5050.000    
N00626           7690.000     1310.000    
N02534           1390.000     4270.000    
N02638           8470.000     5070.000    
N02058           2670.000     4010.000    
N00234           6110.000     70.000      
N01369           1530.000     2710.000    
N02425           4550.000     3650.000    
N01625           7290.000     1110.000    
N01256           4490.000     4150.000    
N02754           7450.000     3930.000    
N02062           2630.000     4050.000    
N00213           6890.000     390.000     
N01267           3490.000     3870.000    
N01772           6370.000     2550.000    
N02077           2490.000     3750.000    
N00636           6190.000     90.000      
N01862           7150.000     3910.000    
N02368           6950.000     1430.000    
N02352           6030.000     630.000     
N01850           7150.000     4350.000    
N00054           5510.000     5090.000    
N00489           5450.000     5170.000    
N01598           10010.000    5910.000    
N01130           7970.000     2850.000    
N01971           5410.000     3650.000    
N02378           7030.000     1010.000    
N00510           5310.000     5930.000    
N00311           5790.000     3550.000    
N01462           2330.000     3070.000    
N01938           4710.000     3390.000    
N00500           5290.000     5810.000    
N02527           1650.000     4470.000    
N02411           8430.000     6470.000    
N00264           5910.000     2090.000    
N01460           2250.000     3050.000    
N01962           4570.000     3570.000    
N00113           2390.000     2270.000    
N00796           2970.000     2370.000    
N02506           8590.000     6550.000    
N01539           5830.000     2150.000    
N00221           3910.000     2110.000    
N02013           4670.000     4550.000    
N00348           7910.000     3150.000    
N01006           6970.000     6010.000    
N00200           3290.000     3270.000    
N02157           8710.000     4290.000    
N00718           2670.000     4890.000    
N01293           6350.000     2470.000    
N00085           6770.000     670.000     
N02672           2290.000     3250.000    
N00829           5450.000     2890.000    
N00258           6170.000     2290.000    
N02015           4950.000     5050.000    
N01062           4170.000     6410.000    
N01433           5830.000     3410.000    
N01408           1510.000     2710.000    
N02528           1710.000     4410.000    
N02567           6790.000     6290.000    
N02315           6910.000     2110.000    
N01724           6650.000     2790.000    
N02543           6050.000     6290.000    
N01620           6030.000     530.000     
N00621           7830.000     1710.000    
N01443           6810.000     3910.000    
N01391           6670.000     270.000     
N00720           2750.000     4790.000    
N00808           4210.000     2030.000    
N01921           4550.000     3410.000    
N01385           2930.000     1530.000    
N01542           5470.000     1730.000    
N01846           6310.000     4170.000    
N00702           2950.000     4410.000    
N02549           6090.000     6550.000    
N00703           3030.000     4270.000    
N00114           2270.000     2670.000    
N01404           6950.000     1450.000    
N02286           7090.000     6290.000    
N00353           7990.000     3150.000    
N00099           1870.000     2150.000    
N02115           7930.000     4370.000    
N02300           7110.000     6670.000    
N01382           7150.000     610.000     
N00792           2970.000     2350.000    
N00535           9530.000     5250.000    
N01771           6650.000     2530.000    
N00009           1190.000     2250.000    
N00141           5810.000     50.000      
N00154           2090.000     2730.000    
N01872           7290.000     3430.000    
N01008           6690.000     5930.000    
N02418           350.000      3970.000    
N01207           8210.000     4270.000    
N02242           4210.000     6410.000    
N02066           2330.000     4570.000    
N02444           7350.000     2610.000    
N00811           4370.000     2050.000    
N01579           7910.000     3870.000    
N02584           9390.000     5070.000    
N01623           7110.000     870.000     
N00890           7950.000     2830.000    
N02243           3990.000     6490.000    
N00831           5210.000     3430.000    
N00821           5390.000     2130.000    
N01654           6290.000     2070.000    
N00269           6110.000     2090.000    
N01111           5550.000     3730.000    
N00091           230.000      2190.000    
N00203           3270.000     3510.000    
N01602           730.000      4290.000    
N02845           6130.000     5710.000    
N01835           6190.000     3890.000    
N00284           5470.000     2690.000    
N00449           7290.000     5290.000    
N02795           7990.000     5870.000    
N00107           2110.000     2550.000    
N01346           2630.000     2290.000    
N02114           7990.000     5650.000    
N02713           7390.000     3310.000    
N02836           6590.000     5650.000    
N02261           4430.000     5970.000    
N02117           7990.000     4950.000    
N01247           5550.000     150.000     
N02498           7170.000     3910.000    
N02589           10350.000    5710.000    
N00300           6010.000     3390.000    
N00497           5370.000     5910.000    
N01365           2670.000     4990.000    
N01141           10050.000    5930.000    
N00963           3670.000     1950.000    
N00222           3710.000     2190.000    
N02133           7950.000     5090.000    
N00569           7430.000     6430.000    
N00250           5470.000     2070.000    
N01527           6610.000     5850.000    
N01264           4550.000     4970.000    
N02430           4610.000     4850.000    
N00639           5850.000     50.000      
N01953           3390.000     2550.000    
N00509           5090.000     5970.000    
N00268           6150.000     2270.000    
N00685           3690.000     3930.000    
N02558           7250.000     690.000     
N00725           1370.000     2230.000    
N00405           5790.000     630.000     
N00691           1990.000     4150.000    
N02635           9690.000     5030.000    
N01957           4430.000     4730.000    
N01881           5310.000     2490.000    
N00283           5530.000     3450.000    
N00819           5030.000     2090.000    
N02351           6070.000     910.000     
N02027           4910.000     5030.000    
N00611           330.000      3990.000    
N02599           150.000      2970.000    
N00243           5350.000     2230.000    
N02050           3150.000     4090.000    
N00389           7950.000     1910.000    
N02462           7290.000     4370.000    
N00722           2870.000     4630.000    
N02382           3410.000     2690.000    
N02441           7610.000     3370.000    
N01610           7730.000     1510.000    
N02749           670.000      4070.000    
N02079           2230.000     3510.000    
N00508           5090.000     5890.000    
N02566           6630.000     6230.000    
N00344           7930.000     3650.000    
N00903           5430.000     750.000     
N02034           4490.000     4850.000    
N02254           4490.000     6270.000    
N02231           4670.000     6430.000    
N02515           4490.000     5850.000    
N00727           1210.000     2910.000    
N01973           4450.000     4130.000    
N00372           7030.000     510.000     
N01888           5430.000     3590.000    
N01917           4310.000     3370.000    
N00545           7430.000     4910.000    
N02273           6530.000     7290.000    
N00409           7570.000     6310.000    
N02708           3370.000     2750.000    
N01498           7910.000     2250.000    
N02260           4450.000     5830.000    
N02800           7470.000     3370.000    
N02215           5030.000     6550.000    
N02450           8530.000     5070.000    
N00900           4490.000     1790.000    
N00696           2150.000     3850.000    
N00651           6730.000     310.000     
N00721           1930.000     4850.000    
N02494           5190.000     930.000     
N00251           5670.000     2150.000    
N01719           6290.000     2810.000    
N00395           7810.000     2070.000    
N00055           7410.000     5010.000    
N00669           8030.000     6450.000    
N00195           4010.000     2070.000    
N02472           7870.000     4270.000    
N00326           6770.000     2070.000    
N01805           5850.000     3930.000    
N01992           5050.000     4250.000    
N00217           5470.000     1750.000    
N02018           5870.000     5410.000    
N02144           7990.000     3890.000    
N01405           1550.000     3010.000    
N00285           5610.000     2810.000    
N02204           4110.000     1490.000    
N01824           5530.000     4750.000    
N00435           8010.000     6590.000    
N01421           6930.000     4310.000    
N02660           2730.000     3530.000    
N02187           4410.000     570.000     
N00723           2770.000     4810.000    
N01612           4810.000     2090.000    
N01650           1230.000     2210.000    
N02801           7410.000     3470.000    
N01431           6150.000     3410.000    
N01451           6870.000     2970.000    
N02673           2270.000     3310.000    
N02069           2290.000     4670.000    
N00109           2330.000     2330.000    
N02391           4330.000     1810.000    
N02065           2230.000     4690.000    
N01886           5430.000     2870.000    
N01489           7270.000     2090.000    
N01532           6670.000     5670.000    
N00975           7370.000     3930.000    
N01444           6230.000     3990.000    
N00315           2570.000     5390.000    
N00314           1970.000     5570.000    
N00002           390.000      2130.000    
N01813           6090.000     4170.000    
N01987           5070.000     4710.000    
N01452           6850.000     2810.000    
N01754           6910.000     2770.000    
N01162           5950.000     270.000     
N01639           5650.000     130.000     
N02256           4090.000     5950.000    
N01947           3350.000     2710.000    
N01931           3350.000     3250.000    
N01241           4430.000     6070.000    
N01820           6210.000     3890.000    
N02738           9550.000     5250.000    
N02824           7130.000     890.000     
N02022           5410.000     5090.000    
N00005           1970.000     2190.000    
N01275           3230.000     3550.000    
N02631           9990.000     5010.000    
N01618           5970.000     590.000     
N01684           5610.000     2370.000    
N00530           8890.000     4430.000    
N00855           7290.000     5630.000    
N00922           110.000      2830.000    
N00504           4970.000     5910.000    
N00156           2190.000     3030.000    
N00008           1270.000     2250.000    
N02822           4970.000     2350.000    
N01186           10330.000    5410.000    
N00023           7350.000     7070.000    
N02293           7890.000     6630.000    
N02745           6030.000     230.000     
N01282           1830.000     4950.000    
N01068           4530.000     5750.000    
N01525           7950.000     4210.000    
N00810           4330.000     1890.000    
N00232           5870.000     50.000      
N00783           570.000      4090.000    
N01774           6370.000     2530.000    
N01055           1350.000     4190.000    
N00108           2210.000     2430.000    
N01778           6150.000     2570.000    
N00383           7370.000     2310.000    
N02497           7330.000     3910.000    
N01810           5770.000     4190.000    
N02099           2270.000     5090.000    
N02457           7410.000     6810.000    
N00947           6790.000     7250.000    
N01113           6370.000     3330.000    
N02266           6450.000     6710.000    
N00181           3610.000     2070.000    
N01697           6390.000     2790.000    
N01502           6850.000     2110.000    
N00167           3810.000     1890.000    
N00237           6590.000     210.000     
N01131           7830.000     2810.000    
N01720           6650.000     3010.000    
N01093           5290.000     6270.000    
N01283           1950.000     5570.000    
N01394           210.000      2310.000    
N01750           6970.000     2290.000    
N02437           590.000      2490.000    
N00053           4410.000     4790.000    
N00140           5710.000     50.000      
N01265           4930.000     5090.000    
N00587           9810.000     5750.000    
N02181           3010.000     1590.000    
N01843           6170.000     3990.000    
N02137           7950.000     4730.000    
N01893           4730.000     4210.000    
N01726           6650.000     2770.000    
N00693           3070.000     3370.000    
N00275           5470.000     3290.000    
N01769           6650.000     2550.000    
N02354           6050.000     630.000     
N01476           4630.000     1250.000    
N00537           8750.000     4190.000    
N00894           6350.000     1110.000    
N02086           8290.000     2830.000    
N02610           4690.000     1250.000    
N01479           4230.000     1670.000    
N02375           7310.000     1190.000    
N01061           3970.000     6490.000    
N00432           7550.000     6330.000    
N00514           4510.000     5850.000    
N01613           5970.000     190.000     
N00280           5570.000     3250.000    
N02842           5690.000     150.000     
N01528           6610.000     5730.000    
N02173           7090.000     3010.000    
N01662           3950.000     1790.000    
N00739           9370.000     4790.000    
N00092           270.000      1910.000    
N01477           4630.000     1290.000    
N00089           6510.000     270.000     
N01991           5070.000     4730.000    
N00659           2530.000     2250.000    
N02765           7370.000     2930.000    
N00202           3350.000     3330.000    
N00171           3370.000     2330.000    
N00245           5550.000     2110.000    
N02004           5190.000     5010.000    
N02810           6170.000     3090.000    
N00169           3490.000     2210.000    
N00157           1850.000     2970.000    
N01911           3490.000     3250.000    
N02415           8070.000     6410.000    
N01982           4410.000     5730.000    
N02735           9630.000     4990.000    
N00993           6050.000     5970.000    
N01140           9910.000     6090.000    
N01333           3730.000     1910.000    
N01692           7090.000     2990.000    
N00021           6710.000     3390.000    
N02232           4710.000     6430.000    
N00547           7610.000     5090.000    
N01499           7890.000     2330.000    
N00127           2870.000     1570.000    
N00397           7870.000     2110.000    
N01260           4430.000     4710.000    
N02384           4770.000     410.000     
N00986           5790.000     6050.000    
N00698           2130.000     5530.000    
N00946           6630.000     7270.000    
N02704           7610.000     3310.000    
N00341           8010.000     3310.000    
N00020           6630.000     3310.000    
N00238           5470.000     2010.000    
N01641           5130.000     190.000     
N01302           6130.000     3030.000    
N00257           6210.000     2130.000    
N01475           5070.000     1010.000    
N01964           4770.000     3450.000    
N02511           10030.000    5810.000    
N01078           4530.000     3390.000    
N02674           2270.000     3290.000    
N00215           5450.000     2070.000    
N02657           2710.000     3770.000    
N01004           6630.000     5850.000    
N01738           6870.000     3010.000    
N00342           7990.000     3470.000    
N02513           4750.000     5870.000    
N02325           7090.000     530.000     
N01768           6850.000     2530.000    
N01578           7750.000     3870.000    
N01420           6230.000     4350.000    
N02710           7990.000     5730.000    
N01841           6210.000     4210.000    
N02280           6630.000     6130.000    
N01925           4750.000     3410.000    
N00041           6590.000     3310.000    
N02024           5170.000     5710.000    
N00836           7230.000     670.000     
N00185           2250.000     2210.000    
N00371           7090.000     570.000     
N01363           2670.000     5410.000    
N00637           6170.000     90.000      
N01517           590.000      2230.000    
N02075           2410.000     3730.000    
N02832           6610.000     5670.000    
N02377           7010.000     1150.000    
N00063           350.000      2050.000    
N00600           2110.000     5130.000    
N01849           6970.000     3450.000    
N00424           7350.000     5110.000    
N01977           4770.000     5330.000    
N00305           6390.000     3350.000    
N02331           6330.000     1010.000    
N00172           2990.000     2370.000    
N00879           8290.000     2810.000    
N00170           3430.000     2270.000    
N00726           1270.000     2370.000    
N00012           830.000      2250.000    
N00991           5730.000     5990.000    
N01757           5810.000     2570.000    
N01485           3430.000     2370.000    
N01279           4590.000     4890.000    
N00668           8150.000     6370.000    
N01751           7110.000     2290.000    
N02161           8510.000     4250.000    
N01064           4570.000     6670.000    
N02793           7990.000     6070.000    
N00684           3270.000     3870.000    
N00446           7570.000     6330.000    
N00907           5950.000     590.000     
N01056           1490.000     4270.000    
N02379           6970.000     1410.000    
N00596           9950.000     5950.000    
N02407           5250.000     6270.000    
N01657           3170.000     3170.000    
N01469           2450.000     2470.000    
N01086           7410.000     3130.000    
N02110           8010.000     6050.000    
N02651           3170.000     3870.000    
N00229           6030.000     2110.000    
N00297           6170.000     3510.000    
N00097           270.000      2070.000    
N00551           5730.000     5250.000    
N01551           5570.000     3410.000    
N01380           2310.000     3190.000    
N02241           4670.000     6450.000    
N02035           4930.000     5070.000    
N01582           5470.000     5170.000    
N01344           2690.000     2290.000    
N02289           7090.000     6630.000    
N00075           5170.000     6190.000    
N00136           5150.000     130.000     
N02426           190.000      2450.000    
N02490           7310.000     1390.000    
N02298           7090.000     6430.000    
N00615           3130.000     5090.000    
N00920           450.000      2810.000    
N01760           7270.000     2510.000    
N01287           7970.000     5830.000    
N02742           9170.000     4950.000    
N02356           6110.000     1210.000    
N00605           1490.000     4290.000    
N00068           1510.000     2190.000    
N01123           7370.000     2990.000    
N01034           6870.000     3330.000    
N00192           3250.000     2290.000    
N02645           2690.000     3850.000    
N01840           6830.000     4190.000    
N01049           1350.000     4170.000    
N01784           5610.000     2590.000    
N00941           4550.000     1210.000    
N01901           4970.000     3390.000    
N00856           5310.000     5070.000    
N02712           8010.000     5990.000    
N02264           4370.000     5830.000    
N01601           690.000      4270.000    
N01611           7670.000     1390.000    
N02692           1930.000     4250.000    
N00007           1710.000     2190.000    
N01010           6110.000     5930.000    
N02588           10190.000    5710.000    
N01745           7170.000     2030.000    
N02681           2470.000     3750.000    
N00115           2230.000     2770.000    
N02364           6910.000     1630.000    
N02281           7090.000     6550.000    
N02698           1590.000     3010.000    
N01329           7470.000     6170.000    
N02410           5690.000     6310.000    
N01752           7090.000     2130.000    
N02711           8010.000     6010.000    
N01021           590.000      2850.000    
N02747           5430.000     2430.000    
N01038           5530.000     3410.000    
N02520           2430.000     3110.000    
N02699           5090.000     990.000     
N00786           7190.000     730.000     
N00074           5050.000     6150.000    
N02728           9910.000     4990.000    
N02582           9610.000     5370.000    
N02287           7070.000     6190.000    
N01933           3350.000     3130.000    
N00853           6070.000     6090.000    
N01860           7150.000     3950.000    
N01559           6870.000     2710.000    
N02646           2010.000     4830.000    
N01816           6070.000     3730.000    
N01437           6150.000     3710.000    
N00010           1070.000     2270.000    
N00035           6510.000     5990.000    
N01491           7130.000     2090.000    
N02177           2650.000     1970.000    
N00201           3510.000     3250.000    
N02606           4670.000     1270.000    
N01318           1270.000     2310.000    
N02105           2630.000     5170.000    
N01466           2530.000     2510.000    
N01736           6190.000     3030.000    
N00346           7130.000     2510.000    
N02109           8010.000     6090.000    
N02786           2650.000     3310.000    
N00812           4550.000     2050.000    
N00442           7910.000     6310.000    
N01493           6330.000     2110.000    
N02374           7310.000     1350.000    
N00498           4970.000     5830.000    
N00375           7870.000     1770.000    
N02166           9010.000     4290.000    
N01031           7410.000     3370.000    
N00502           5330.000     5910.000    
N01441           6250.000     3930.000    
N01656           3170.000     3250.000    
N02188           4550.000     490.000     
N01478           4730.000     1250.000    
N00707           4790.000     5770.000    
N00870           6870.000     730.000     
N01521           7970.000     3330.000    
N00402           6250.000     550.000     
N00399           7830.000     1850.000    
N01740           6850.000     2650.000    
N02665           2750.000     3550.000    
N01361           4710.000     5910.000    
N00906           5830.000     590.000     
N02767           7350.000     2630.000    
N00629           6410.000     210.000     
N00871           7010.000     810.000     
N01640           5910.000     130.000     
N01533           9910.000     6050.000    
N00959           2650.000     1910.000    
N01831           6910.000     4310.000    
N00553           6130.000     5590.000    
N02251           4110.000     5970.000    
N00609           590.000      4090.000    
N00692           3210.000     3410.000    
N02611           4970.000     1070.000    
N01773           6390.000     2750.000    
N01368           4210.000     3310.000    
N02781           5070.000     6110.000    
N00591           10110.000    5550.000    
N00852           6650.000     6050.000    
N00905           5690.000     630.000     
N00775           1790.000     4710.000    
N02107           2630.000     5110.000    
N02438           830.000      2510.000    
N00444           7910.000     6330.000    
N00931           910.000      4110.000    
N01788           5810.000     2790.000    
N01434           6210.000     3470.000    
N00585           9930.000     5890.000    
N01974           4450.000     4150.000    
N02467           7430.000     4350.000    
N02666           3210.000     3610.000    
N01445           5830.000     4370.000    
N01291           6050.000     6370.000    
N02505           6810.000     5970.000    
N02282           7050.000     6170.000    
N00320           3050.000     4250.000    
N01870           7290.000     3670.000    
N00619           1190.000     2950.000    
N02060           2390.000     4490.000    
N01853           6910.000     3930.000    
N00187           3430.000     2250.000    
N00689           5250.000     3650.000    
N02073           2730.000     3570.000    
N01858           7130.000     4170.000    
N02607           4170.000     1650.000    
N00067           1050.000     2270.000    
N00263           6070.000     1950.000    
N00235           6270.000     110.000     
N01732           6170.000     2790.000    
N00312           2550.000     5490.000    
N01500           6870.000     2450.000    
N01389           2610.000     1870.000    
N00776           1550.000     4730.000    
N01889           5410.000     3450.000    
N02746           3270.000     3050.000    
N01864           7350.000     3890.000    
N00769           10350.000    6010.000    
N02192           4410.000     590.000     
N02722           9310.000     4990.000    
N01802           5850.000     3730.000    
N00586           9950.000     5970.000    
N00634           6150.000     70.000      
N01342           3250.000     3790.000    
N00335           7370.000     3310.000    
N02727           9690.000     5010.000    
N01274           3450.000     2490.000    
N00301           5710.000     3370.000    
N01000           6790.000     5990.000    
N01626           7330.000     1250.000    
N00457           6970.000     5670.000    
N01373           1650.000     2190.000    
N01398           190.000      2490.000    
N02160           8310.000     4250.000    
N01143           8230.000     6370.000    
N01042           2190.000     3670.000    
N01619           6010.000     510.000     
N02551           6070.000     6710.000    
N01278           2610.000     5230.000    
N00672           550.000      4050.000    
N00566           8870.000     4290.000    
N01781           6190.000     2530.000    
N00212           6750.000     310.000     
N00069           1610.000     2190.000    
N01114           6530.000     3290.000    
N02385           4550.000     510.000     
N01349           2710.000     2330.000    
N01447           5890.000     4370.000    
N00645           5530.000     110.000     
N02458           7810.000     6790.000    
N02297           7090.000     6670.000    
N01362           2630.000     5270.000    
N00204           3250.000     3670.000    
N01410           1810.000     2650.000    
N02130           7930.000     4230.000    
N00851           5770.000     6070.000    
N01959           4470.000     4210.000    
N01686           5810.000     2550.000    
N01584           3070.000     2390.000    
N02076           2470.000     3710.000    
N02057           2710.000     3850.000    
N02182           2790.000     1770.000    
N02718           3370.000     3170.000    
N01839           6670.000     4150.000    
N01956           3330.000     3010.000    
N02753           7390.000     3850.000    
N00400           6030.000     570.000     
N00814           4010.000     2090.000    
N00138           5430.000     70.000      
N00083           6470.000     590.000     
N00014           7770.000     2050.000    
N01531           6230.000     5710.000    
N02669           2530.000     3290.000    
N01327           7230.000     6170.000    
N01309           1190.000     2590.000    
N01566           9910.000     5730.000    
N01427           6910.000     3850.000    
N02216           5110.000     6630.000    
N01666           7970.000     5470.000    
N01834           6970.000     3950.000    
N01958           4510.000     4090.000    
N02094           3010.000     5070.000    
N01059           1930.000     4790.000    
N01606           7350.000     2290.000    
N02736           9830.000     4990.000    
N00151           2390.000     2190.000    
N01749           7270.000     2490.000    
N00664           8030.000     6610.000    
N02729           9290.000     5010.000    
N01588           1910.000     4810.000    
N00506           5390.000     5950.000    
N00773           1550.000     4390.000    
N00925           430.000      2870.000    
N01324           4630.000     5810.000    
N00660           2550.000     2130.000    
N01129           7830.000     2850.000    
N02555           6070.000     6670.000    
N00126           2730.000     1670.000    
N02694           1170.000     4390.000    
N02768           7110.000     2770.000    
N01887           5470.000     3730.000    
N02283           6850.000     6110.000    
N02496           5750.000     50.000      
N01587           1910.000     4870.000    
N01572           5930.000     2090.000    
N02486           3450.000     2610.000    
N01012           7590.000     1230.000    
N01845           6710.000     4210.000    
N00656           5990.000     410.000     
N02238           4690.000     6450.000    
N01125           7990.000     1870.000    
N01065           4610.000     6530.000    
N00294           6250.000     3370.000    
N00382           7350.000     2130.000    
N00714           2730.000     4890.000    
N02021           5130.000     5070.000    
N01915           4090.000     3330.000    
N01286           4550.000     3730.000    
N00410           7470.000     6230.000    
N01689           5790.000     2210.000    
N01776           6150.000     2610.000    
N01007           7110.000     6110.000    
N01102           8290.000     2370.000    
N01905           4570.000     3330.000    
N02658           2510.000     3510.000    
N00673           190.000      2430.000    
N02709           4990.000     250.000     
N02553           6030.000     6730.000    
N01847           7030.000     4150.000    
N02833           6170.000     5630.000    
N02008           5210.000     4710.000    
N00102           1950.000     2210.000    
N01240           4470.000     6250.000    
N00220           4970.000     2110.000    
N02540           7310.000     830.000     
N02632           9650.000     5030.000    
N02664           3010.000     3570.000    
N01884           5390.000     2850.000    
N00984           6570.000     5910.000    
N01470           2710.000     1850.000    
N01083           5470.000     1950.000    
N01775           6550.000     2530.000    
N02844           6230.000     5950.000    
N01401           1510.000     2910.000    
N01960           4450.000     4470.000    
N01885           5450.000     2450.000    
N00327           6850.000     2030.000    
N02113           8010.000     5510.000    
N01617           4810.000     350.000     
N00495           5070.000     5870.000    
N00139           5570.000     50.000      
N00688           5050.000     3670.000    
N01273           3430.000     2490.000    
N01651           1470.000     2190.000    
N01449           6210.000     4390.000    
N01092           5250.000     6430.000    
N01529           6550.000     5690.000    
N02274           6710.000     6710.000    
N01471           2890.000     1670.000    
N01297           6630.000     2170.000    
N02090           8290.000     2590.000    
N00708           3130.000     4170.000    
N00422           7070.000     850.000     
N02474           3470.000     2250.000    
N02825           5230.000     4910.000    
N00205           2990.000     3150.000    
N00638           5890.000     50.000      
N01707           5970.000     2790.000    
N02091           2690.000     5090.000    
N01696           5950.000     3050.000    
N00190           3750.000     1910.000    
N01142           10130.000    5970.000    
N02269           7070.000     7110.000    
N02640           3030.000     3570.000    
N01030           6890.000     3370.000    
N01505           7450.000     6210.000    
N02508           9950.000     6010.000    
N00295           6190.000     3650.000    
N02145           3270.000     3150.000    
N01343           3210.000     2310.000    
N00019           6450.000     3430.000    
N00965           3490.000     2150.000    
N02636           8730.000     5070.000    
N01741           6870.000     2810.000    
N01658           3410.000     3230.000    
N02726           8950.000     5030.000    
N00589           9870.000     5710.000    
N02693           1810.000     4370.000    
N00481           5490.000     5930.000    
N00803           2850.000     3090.000    
N00427           7550.000     5190.000    
N00877           7490.000     2730.000    
N00317           2610.000     5070.000    
N01379           7590.000     4710.000    
N02744           6390.000     150.000     
N01927           3790.000     2950.000    
N00084           6650.000     630.000     
N01939           4590.000     3430.000    
N02489           7310.000     1450.000    
N00125           2610.000     1810.000    
N02096           2590.000     5090.000    
N02526           750.000      4330.000    
N01709           5810.000     3050.000    
N00256           6090.000     2090.000    
N00328           7270.000     2030.000    
N01548           7730.000     2870.000    
N01067           5590.000     2570.000    
N01616           4950.000     290.000     
N01902           4890.000     3370.000    
N02512           10070.000    5690.000    
N00957           2590.000     2270.000    
N01972           4470.000     4150.000    
N02081           8310.000     3170.000    
N01585           1850.000     4730.000    
N01137           9050.000     5150.000    
N00948           6890.000     7210.000    
N00299           5830.000     3390.000    
N01176           10410.000    5210.000    
N02373           7010.000     1410.000    
N02176           2530.000     2270.000    
N01503           8010.000     6390.000    
N01910           3770.000     3270.000    
N02785           2570.000     3210.000    
N01306           1130.000     2890.000    
N02440           1210.000     2570.000    
N02737           9430.000     5090.000    
N02093           3010.000     5090.000    
N01103           8290.000     2490.000    
N02730           9530.000     5310.000    
N02831           5670.000     6350.000    
N01397           210.000      2470.000    
N01795           5730.000     4190.000    
N01833           6930.000     3690.000    
N01555           5430.000     3570.000    
N01682           5830.000     3310.000    
N01077           5110.000     3390.000    
N02268           6150.000     6710.000    
N01154           8490.000     6510.000    
N01703           5710.000     2830.000    
N00332           7410.000     3890.000    
N01057           1690.000     4470.000    
N01693           7270.000     2990.000    
N01993           5430.000     4350.000    
N01913           2930.000     3190.000    
N00347           7910.000     2990.000    
N00499           5090.000     5770.000    
N00534           9370.000     5010.000    
N02834           6290.000     5690.000    
N01066           5470.000     2530.000    
N00861           6250.000     6050.000    
N02000           5210.000     4310.000    
N00674           6150.000     2310.000    
N02791           7390.000     4250.000    
N00624           7650.000     1270.000    
N00944           7450.000     7170.000    
N00296           6170.000     3150.000    
N01688           5770.000     2350.000    
N00362           7930.000     3630.000    
N02159           8190.000     4250.000    
N00987           5630.000     5990.000    
N02270           7110.000     7010.000    
N00155           1750.000     2970.000    
N00482           5390.000     5910.000    
N01337           2050.000     5570.000    
N00538           7430.000     5070.000    
N01581           5490.000     5090.000    
N01663           7070.000     890.000     
N02123           7890.000     5090.000    
N01044           1150.000     3150.000    
N00863           7370.000     6770.000    
N00017           7590.000     2070.000    
N02650           2950.000     3830.000    
N00740           9310.000     4910.000    
N00387           7850.000     1750.000    
N02483           7130.000     3330.000    
N01330           7450.000     6350.000    
N00379           7530.000     1030.000    
N00242           5350.000     2150.000    
N00822           5230.000     2110.000    
N01370           1990.000     2630.000    
N00835           7230.000     690.000     
N02826           6250.000     6710.000    
N01020           990.000      2910.000    
N01412           3130.000     4070.000    
N00918           410.000      2790.000    
N01311           630.000      2530.000    
N01716           6210.000     2830.000    
N00493           4730.000     5830.000    
N00816           4090.000     2110.000    
N02288           7090.000     6650.000    
N01377           6170.000     3130.000    
N00252           5490.000     2230.000    
N02662           2510.000     3530.000    
N00823           5350.000     2030.000    
N01351           7170.000     610.000     
N01258           4510.000     4150.000    
N00394           7630.000     2070.000    
N01897           5490.000     5070.000    
N01524           9290.000     4910.000    
N01799           5850.000     3990.000    
N02056           2810.000     3170.000    
N02501           6610.000     650.000     
N00211           6650.000     230.000     
N01794           5510.000     4170.000    
N02409           5510.000     6370.000    
N01705           5710.000     2810.000    
N02392           4370.000     1830.000    
N01076           3710.000     3270.000    
N00166           1890.000     3050.000    
N02435           250.000      2410.000    
N02595           10270.000    5310.000    
N01043           1170.000     3270.000    
N00919           150.000      2830.000    
N02656           2730.000     3730.000    
N01540           5430.000     2070.000    
N00248           5470.000     2270.000    
N02097           2550.000     5090.000    
N01002           6170.000     5650.000    
N02569           7050.000     6430.000    
N02816           7370.000     2970.000    
N01158           7990.000     6790.000    
N02809           2970.000     3190.000    
N01122           7150.000     3570.000    
N00603           1950.000     4890.000    
N01353           710.000      4210.000    
N00436           7870.000     6450.000    
N00617           2050.000     5070.000    
N00045           9870.000     4910.000    
N00226           4690.000     2070.000    
N01765           6970.000     2510.000    
N00076           6310.000     6250.000    
N00224           4110.000     2070.000    
N00398           7630.000     2030.000    
N00307           5670.000     3430.000    
N02724           9090.000     4690.000    
N01573           6210.000     2090.000    
N00355           7890.000     3470.000    
N02237           4730.000     6370.000    
N00945           6710.000     7250.000    
N00865           7450.000     6450.000    
N01547           7530.000     3330.000    
N00536           8790.000     4270.000    
N02284           6730.000     6050.000    
N02406           5090.000     6170.000    
N02267           6610.000     6670.000    
N00917           250.000      2810.000    
N02311           7370.000     2490.000    
N01918           4150.000     3350.000    
N01630           4950.000     270.000     
N00131           4690.000     330.000     
N02538           1350.000     4590.000    
N00932           1050.000     4150.000    
N02167           8910.000     4290.000    
N02799           9350.000     5070.000    
N01208           8010.000     4270.000    
N01714           6130.000     2810.000    
N00858           7230.000     5450.000    
N01647           790.000      2210.000    
N00983           6430.000     5910.000    
N01035           6870.000     3110.000    
N02414           8150.000     6390.000    
N01803           5870.000     4190.000    
N01513           9670.000     5490.000    
N01698           6390.000     3010.000    
N00260           6090.000     1970.000    
N02049           3210.000     3930.000    
N02252           4090.000     6150.000    
N01117           6630.000     3450.000    
N00570           7450.000     6310.000    
N02648           2890.000     3810.000    
N00393           7690.000     2110.000    
N02548           6090.000     6510.000    
N00153           2490.000     2010.000    
N00588           9770.000     5650.000    
N01562           9910.000     6070.000    
N01537           5750.000     2150.000    
N01472           2970.000     1570.000    
N02521           1210.000     2950.000    
N02029           4610.000     4950.000    
N02132           7930.000     4270.000    
N01144           8410.000     6370.000    
N02654           3210.000     3470.000    
N01319           1290.000     2590.000    
N00683           3510.000     3890.000    
N02376           6990.000     1390.000    
N01523           7830.000     1590.000    
N00784           310.000      4030.000    
N02172           9890.000     4990.000    
N00908           6390.000     3030.000    
N02796           3170.000     2330.000    
N02690           1870.000     4290.000    
N01879           5030.000     2390.000    
N00542           7450.000     5410.000    
N00130           4610.000     370.000     
N02778           5870.000     6030.000    
N00011           950.000      2270.000    
N00333           7350.000     3650.000    
N00413           6210.000     4410.000    
N01392           7170.000     630.000     
N01821           6230.000     4150.000    
N01284           2250.000     5510.000    
N01013           7490.000     1090.000    
N00677           5430.000     3670.000    
N01742           6890.000     2990.000    
N02199           4170.000     1550.000    
N02276           6630.000     6530.000    
N00253           5130.000     970.000     
N02792           7470.000     4330.000    
N01948           2470.000     2590.000    
N01608           7170.000     2090.000    
N01331           7390.000     6130.000    
N00616           1950.000     4910.000    
N02141           7950.000     4270.000    
N02074           2250.000     3690.000    
N00159           2830.000     3110.000    
N01340           3570.000     3190.000    
N00364           7950.000     3210.000    
N00891           8150.000     2810.000    
N02134           7950.000     4650.000    
N00717           2610.000     5030.000    
N02210           6990.000     3350.000    
N02071           2650.000     3770.000    
N01807           5850.000     4190.000    
N01984           4770.000     5310.000    
N02068           2390.000     4510.000    
N01045           2330.000     3110.000    
N01646           470.000      2050.000    
N00137           5270.000     90.000      
N01552           5570.000     3570.000    
N01116           6790.000     3390.000    
N00066           950.000      2250.000    
N01652           1590.000     2190.000    
N00158           2410.000     3050.000    
N01826           5530.000     4310.000    
N01950           3010.000     2670.000    
N00501           5210.000     5790.000    
N02318           7610.000     2030.000    
N00955           7750.000     3890.000    
N00150           2350.000     2290.000    
N00864           7410.000     6590.000    
N00095           270.000      1950.000    
N01454           8250.000     2810.000    
N01520           8190.000     3330.000    
N00003           250.000      1990.000    
N01574           6170.000     2590.000    
N00289           6870.000     3510.000    
N02626           4410.000     2090.000    
N02196           4150.000     1570.000    
N01300           6870.000     2050.000    
N01210           7450.000     6490.000    
N01350           6970.000     450.000     
N01512           9550.000     5310.000    
N02369           7030.000     1150.000    
N01371           1730.000     2690.000    
N01543           5530.000     710.000     
N01936           4570.000     3610.000    
N00556           6210.000     5670.000    
N01747           6830.000     2250.000    
N00026           7930.000     3870.000    
N01869           7130.000     3570.000    
N02319           7790.000     2030.000    
N02813           7350.000     3270.000    
N00356           7770.000     3370.000    
N01856           7010.000     3670.000    
N01629           5050.000     910.000     
N02840           5310.000     6250.000    
N02054           4250.000     4070.000    
N02817           7370.000     2870.000    
N02327           6610.000     830.000     
N01409           1690.000     2670.000    
N01305           1210.000     3010.000    
N00813           4170.000     2070.000    
N00408           7490.000     6230.000    
N01216           7290.000     7130.000    
N01731           6170.000     2810.000    
N01215           7790.000     6630.000    
N01621           8270.000     3330.000    
N02064           2110.000     4770.000    
N00027           7910.000     3710.000    
N01597           9890.000     5770.000    
N02389           4210.000     1670.000    
N00503           5090.000     6050.000    
N02124           7950.000     5010.000    
N01797           5710.000     3510.000    
N01413           3090.000     4230.000    
N01926           3630.000     2930.000    
N01554           5450.000     3430.000    
N00163           2350.000     3090.000    
N00367           7590.000     1170.000    
N01739           6870.000     2750.000    
N00679           5130.000     3470.000    
N00188           3510.000     2130.000    
N01691           6890.000     3010.000    
N02752           890.000      4130.000    
N02466           7430.000     4330.000    
N02170           8910.000     4410.000    
N01313           330.000      2430.000    
N01842           6230.000     4390.000    
N02473           3450.000     2390.000    
N00165           1390.000     2970.000    
N01564           9770.000     5630.000    
N02761           5410.000     2890.000    
N02835           6410.000     5690.000    
N02838           4970.000     6170.000    
N02063           2650.000     3970.000    
N01204           9330.000     5430.000    
N02305           7470.000     7050.000    
N00951           6650.000     7170.000    
N00087           6890.000     490.000     
N02695           1190.000     4390.000    
N01659           3510.000     2330.000    
N00612           3450.000     5050.000    
N00801           3110.000     3010.000    
N01997           5230.000     3890.000    
N01028           7350.000     2330.000    
N01660           3490.000     2490.000    
N01039           5530.000     3250.000    
N00799           3330.000     2890.000    
N01866           7150.000     3870.000    
N01873           5410.000     1710.000    
N00479           5270.000     5670.000    
N00440           8030.000     6410.000    
N01270           2930.000     2670.000    
N01975           4290.000     4090.000    
N00622           7790.000     1550.000    
N01615           5770.000     150.000     
N01205           9210.000     5570.000    
N02262           4470.000     6270.000    
N02575           5130.000     1010.000    
N01806           6050.000     3730.000    
N01071           5230.000     4450.000    
N01882           5050.000     2150.000    
N02625           4650.000     2090.000    
N01251           7910.000     5090.000    
N00286           6890.000     3130.000    
N00567           7430.000     6450.000    
N00911           10350.000    5330.000    
N02811           7310.000     3310.000    
N00625           7570.000     1110.000    
N02434           6070.000     50.000      
N01710           5810.000     2830.000    
N00921           610.000      2810.000    
N00604           1610.000     4410.000    
N02774           3570.000     5090.000    
N02617           7050.000     890.000     
N01880           5050.000     2370.000    
N02078           2450.000     3790.000    
N01599           9170.000     5030.000    
N01249           5230.000     210.000     
N00378           7390.000     870.000     
N02036           4770.000     5030.000    
N02649           3130.000     3850.000    
N00193           3770.000     2150.000    
N01661           4110.000     1690.000    
N02116           7950.000     4490.000    
N00352           7970.000     3130.000    
N00423           7490.000     5110.000    
N00824           5410.000     2510.000    
N02428           8310.000     3330.000    
N01894           5530.000     4350.000    
N01904           4170.000     3290.000    
N02615           6610.000     3730.000    
N01942           2890.000     2670.000    
N01667           7950.000     5390.000    
N01101           8210.000     2130.000    
N00623           7710.000     1390.000    
N00548           7450.000     5070.000    
N00882           7630.000     2790.000    
N01084           5470.000     2310.000    
N01448           6090.000     4390.000    
N00916           150.000      2630.000    
N01900           4810.000     3410.000    
N01764           7110.000     2510.000    
N02805           8970.000     4570.000    
N01859           7170.000     4150.000    
N02750           850.000      4110.000    
N01317           1230.000     2890.000    
N02053           4010.000     3990.000    
N01743           6850.000     2510.000    
N02083           8290.000     2870.000    
N00018           6610.000     3430.000    
N01655           3190.000     3290.000    
N02537           1350.000     4410.000    
N00999           6590.000     5950.000    
N01702           5970.000     2830.000    
N00096           290.000      1770.000    
N00860           6270.000     6030.000    
N01808           5770.000     4210.000    
N02277           6610.000     6130.000    
N02126           7930.000     4790.000    
N02211           7390.000     3290.000    
N01534           9870.000     5870.000    
N02214           4870.000     6490.000    
N01759           6130.000     2570.000    
N01665           7990.000     5830.000    
N00873           6870.000     850.000     
N01036           6930.000     3510.000    
N01683           5790.000     2350.000    
N00455           7370.000     5330.000    
N02296           7090.000     6830.000    
N02087           8310.000     2810.000    
N01577           6950.000     2310.000    
N00265           6150.000     1890.000    
N00040           6430.000     3330.000    
N01677           8270.000     2150.000    
N00411           7470.000     6370.000    
N00373           6910.000     430.000     
N02620           7350.000     2550.000    
N01334           3890.000     1830.000    
N00189           3610.000     2010.000    
N00661           2610.000     2030.000    
N01725           6410.000     2790.000    
N01428           6910.000     3970.000    
N02619           6910.000     3710.000    
N02716           7150.000     3390.000    
N01883           4890.000     2130.000    
N01780           6170.000     2510.000    
N01779           6150.000     2550.000    
N01536           10230.000    5310.000    
N01678           8310.000     2830.000    
N00667           8010.000     6610.000    
N01483           3950.000     2070.000    
N00032           6810.000     6050.000    
N02303           7110.000     6910.000    
N02101           2310.000     5110.000    
N01594           9930.000     5870.000    
N00160           2130.000     2470.000    
N01128           8010.000     2830.000    
N02449           8630.000     5070.000    
N01863           7150.000     3890.000    
N01126           7690.000     1470.000    
N00632           6150.000     130.000     
N02556           6250.000     6850.000    
N00057           7410.000     4410.000    
N00695           1670.000     4450.000    
N01484           4150.000     2030.000    
N01914           2830.000     3150.000    
N02436           450.000      2470.000    
N02136           7930.000     4430.000    
N02630           4150.000     2110.000    
N02503           6930.000     6050.000    
N01837           6230.000     4190.000    
N00180           3730.000     1950.000    
N02139           7770.000     4690.000    
N02715           7310.000     3370.000    
N02162           8810.000     4330.000    
N02523           1250.000     2970.000    
N01384           7110.000     550.000     
N00450           7330.000     5110.000    
N02138           7450.000     4730.000    
N00390           7890.000     2090.000    
N02001           5210.000     4290.000    
N01867           7150.000     3670.000    
N00434           7370.000     6290.000    
N02671           2310.000     3150.000    
N02705           3390.000     2650.000    
N01145           8450.000     6490.000    
N02443           7350.000     2510.000    
N02775           3490.000     5070.000    
N02250           4090.000     6130.000    
N01388           2650.000     1790.000    
N02367           7010.000     1190.000    
N00396           7770.000     2150.000    
N02823           7250.000     1030.000    
N01730           6810.000     2770.000    
N01032           6870.000     3630.000    
N01961           4550.000     4170.000    
N01352           7330.000     790.000     
N00392           7870.000     2350.000    
N02171           9010.000     4570.000    
N01954           2550.000     2430.000    
N02240           4550.000     6350.000    
N02499           7370.000     3970.000    
N01770           6410.000     2550.000    
N02685           2210.000     3630.000    
N00279           5490.000     3110.000    
N01809           5550.000     4210.000    
N01583           5530.000     5150.000    
N02131           7930.000     3910.000    
N02028           4550.000     4910.000    
N00546           7470.000     5070.000    
N02007           5470.000     4690.000    
N01050           1490.000     4230.000    
N01289           7970.000     5390.000    
N01575           6170.000     2750.000    
N00385           7790.000     2010.000    
N00642           5150.000     190.000     
N02568           6610.000     6230.000    
N02594           10250.000    5250.000    
N00209           3350.000     3170.000    
N00653           6970.000     470.000     
N01446           5850.000     4230.000    
N01166           10090.000    5730.000    
N00699           2210.000     5590.000    
N02285           7130.000     6210.000    
N02302           7110.000     6990.000    
N01440           6150.000     3730.000    
N00065           770.000      2230.000    
N02106           2650.000     5090.000    
N02209           6850.000     3170.000    
N01325           7150.000     6150.000    
N01383           7050.000     510.000     
N01212           7410.000     6790.000    
N02128           7970.000     5070.000    
N00512           4970.000     5870.000    
N00093           230.000      2250.000    
N01944           2710.000     2630.000    
N00024           7350.000     6990.000    
N00274           5190.000     3470.000    
N00271           6350.000     2150.000    
N02179           2890.000     1650.000    
N02787           2770.000     3210.000    
N00094           270.000      2110.000    
N00233           6010.000     50.000      
N00034           6690.000     6010.000    
N00857           7090.000     5670.000    
N01467           2730.000     2470.000    
N02447           9010.000     5070.000    
N01450           6870.000     3050.000    
N00872           6710.000     670.000     
N01422           6850.000     3930.000    
N01722           6650.000     2810.000    
N02098           2310.000     5090.000    
N01804           5870.000     4350.000    
N00208           3130.000     3150.000    
N02454           5810.000     3150.000    
N00486           5090.000     5850.000    
N01995           5210.000     3990.000    
N00480           5330.000     5850.000    
N00513           4690.000     5830.000    
N00090           210.000      2330.000    
N01335           1950.000     5610.000    
N01940           3370.000     2830.000    
N01496           6890.000     2010.000    
N02158           7990.000     4250.000    
N00825           5210.000     2470.000    
N00620           1030.000     2930.000    
N00690           1910.000     4250.000    
N00915           150.000      2770.000    
N00240           5430.000     2250.000    
N01695           5810.000     2890.000    
N00368           7450.000     970.000     
N00644           5370.000     130.000     
N01694           5830.000     3050.000    
N01932           3290.000     3390.000    
N02308           7410.000     7030.000    
N00273           5390.000     3430.000    
N01649           1050.000     2250.000    
N01495           6870.000     2030.000    
N00334           7370.000     3450.000    
N00697           2190.000     3690.000    
N02609           4190.000     1610.000    
N00828           3410.000     2910.000    
N01209           7430.000     4750.000    
N02469           7390.000     4370.000    
N00259           5950.000     2050.000    
N02616           7270.000     1070.000    
N00210           3430.000     3290.000    
N01791           5970.000     3310.000    
N00833           7270.000     710.000     
N02432           6050.000     50.000      
N02644           3150.000     4050.000    
N01486           3510.000     2290.000    
N00214           5450.000     2310.000    
N02596           10430.000    5350.000    
N01011           6110.000     5810.000    
N01033           6810.000     3390.000    
N01937           4570.000     3370.000    
N01053           1030.000     4150.000    
N01669           7970.000     5370.000    
N01756           6730.000     2530.000    
N00701           2850.000     4570.000    
N01595           9970.000     5990.000    
N00507           5230.000     5910.000    
N00381           7370.000     1990.000    
N00818           5030.000     2110.000    
N01406           1350.000     2930.000    
N00815           5450.000     2010.000    
N01969           4870.000     3670.000    
N02470           7410.000     4330.000    
N02751           730.000      4130.000    
N00168           3670.000     1990.000    
N00511           5130.000     5890.000    
N00827           5490.000     2510.000    
N01439           6190.000     3750.000    
N00036           6350.000     5990.000    
N00998           6450.000     5950.000    
N01314           250.000      2430.000    
N02247           4110.000     5950.000    
N01185           10210.000    5710.000    
N01793           5510.000     3970.000    
N02714           7750.000     3310.000    
N02493           5330.000     830.000     
N02509           10170.000    5430.000    
N00878           7650.000     2770.000    
N00218           5570.000     2150.000    
N00164           1830.000     3050.000    
N02433           6170.000     70.000      
N01530           6390.000     5710.000    
N00304           5830.000     3330.000    
N00515           4410.000     5790.000    
N00930           170.000      3990.000    
N00997           6410.000     5910.000    
N01965           4970.000     3670.000    
N02491           6210.000     90.000      
N01316           1270.000     2650.000    
N01685           5810.000     2350.000    
N01966           5470.000     3670.000    
N00031           6970.000     6090.000    
N00191           3310.000     2310.000    
N01735           6170.000     3030.000    
N02245           4190.000     6390.000    
N00272           5510.000     3730.000    
N01967           5430.000     3650.000    
N02292           7810.000     6630.000    
N02563           1270.000     2950.000    
N00454           7590.000     5090.000    
N02033           4450.000     4810.000    
N02667           3050.000     3590.000    
N01748           6790.000     2110.000    
N00331           8330.000     3330.000    
N00414           5670.000     4390.000    
N02032           4210.000     4950.000    
N01715           6110.000     2790.000    
N00377           7870.000     1970.000    
N00186           2890.000     2330.000    
N02429           2850.000     3130.000    
N00859           6450.000     6010.000    
N00525           4350.000     5770.000    
N02299           6850.000     6330.000    
N00676           5470.000     1710.000    
N01098           8150.000     2090.000    
N02668           2790.000     3270.000    
N02082           8290.000     2990.000    
N00015           7070.000     2070.000    
N01432           5990.000     3410.000    
N01822           6830.000     3710.000    
N00952           6630.000     7030.000    
N01411           1990.000     2610.000    
N01934           3390.000     2950.000    
N01708           5830.000     2830.000    
N01455           8290.000     2770.000    
N02564           7850.000     3370.000    
N00654           6410.000     150.000     
N02108           2650.000     5050.000    
N02586           9130.000     4730.000    
N00933           6410.000     570.000     
N00962           3550.000     2070.000    
N01132           7910.000     2750.000    
N02682           2410.000     3910.000    
N00433           7430.000     6590.000    
N01390           2550.000     1930.000    
N00303           6130.000     3370.000    
N00122           2170.000     2290.000    
N00184           2150.000     2090.000    
N02510           10110.000    5590.000    
N01851           7150.000     4170.000    
N00550           5570.000     5110.000    
N01941           3430.000     2710.000    
N02565           7870.000     3210.000    
N00456           6990.000     5670.000    
N01777           6150.000     2430.000    
N00484           5150.000     5850.000    
N02272           6650.000     6810.000    
N01825           5530.000     4930.000    
N00428           7470.000     5330.000    
N00543           7410.000     5570.000    
N00641           4990.000     230.000     
N00849           5530.000     6010.000    
N02236           4730.000     6430.000    
N01198           10530.000    5130.000    
N02652           3210.000     3870.000    
N01631           4790.000     330.000     
N02084           8350.000     2830.000    
N01717           6310.000     3030.000    
N02147           3250.000     3150.000    
N00924           1050.000     2890.000    
N00627           7730.000     1390.000    
N00431           7730.000     6350.000    
N00241           5270.000     2170.000    
N01029           7230.000     2310.000    
N00308           5790.000     3490.000    
N01622           7110.000     890.000     
N00111           2530.000     1950.000    
N00199           3230.000     3310.000    
N00902           5250.000     870.000     
N00293           6210.000     3290.000    
N02585           9310.000     4950.000    
N00403           7090.000     870.000     
N00996           6250.000     5970.000    
N01535           10150.000    5490.000    
N01280           4650.000     4690.000    
N00640           5730.000     50.000      
N00706           2470.000     5530.000    
N02552           6070.000     6730.000    
N01586           1810.000     4670.000    
N01553           5510.000     3710.000    
N00370           7150.000     630.000     
N01218           7470.000     7150.000    
N02829           6630.000     6930.000    
N00134           4950.000     210.000     
N01393           250.000      2130.000    
N00494           4890.000     5830.000    
N01372           1610.000     2730.000    
N02550           6050.000     6750.000    
N02707           3370.000     2730.000    
N01955           2910.000     2510.000    
N00954           7930.000     3890.000    
N02776           4690.000     4210.000    
N02388           5070.000     930.000     
N00571           7390.000     6270.000    

[REPORT]
INPUT NO
CONTROLS NO
NODES ALL
LINKS ALL
