[TITLE]
Gravity-consistent road-derived conceptual drainage network

[OPTIONS]
FLOW_UNITS           CMS
FLOW_ROUTING         DYNWAVE
START_DATE           01/01/2026
START_TIME           00:00:00
REPORT_START_DATE    01/01/2026
REPORT_START_TIME    00:00:00
END_DATE             01/01/2026
END_TIME             06:00:00
REPORT_STEP          00:05:00
WET_STEP             00:00:30
DRY_STEP             00:05:00
ROUTING_STEP         0:00:01.00
ALLOW_PONDING        YES
INERTIAL_DAMPING     PARTIAL
VARIABLE_STEP        0.25
MINIMUM_STEP         0.05
LENGTHENING_STEP     5.0
NORMAL_FLOW_LIMITED  BOTH
FORCE_MAIN_EQUATION  H-W
SURCHARGE_METHOD     SLOT
MAX_TRIALS           50
HEAD_TOLERANCE       0.0015
THREADS              1

[EVAPORATION]
CONSTANT 0.0
DRY_ONLY NO

[JUNCTIONS]
N02003           7.8366       3.6562     0 0 20
N00565           9.5436       6.4740     0 0 20
N01130           3.4249       1.8134     0 0 20
N00802           6.4082       2.3189     0 0 20
N01404           2.5911       2.4576     0 0 20
N01455           3.5563       1.0247     0 0 20
N02753           5.8461       2.5268     0 0 20
N02001           7.8225       3.8106     0 0 20
N01445           8.0188       5.8610     0 0 20
N02026           18.1022      1.2366     0 0 20
N01037           5.2587       1.8004     0 0 20
N01399           15.4024      11.6106    0 0 20
N01818           7.7954       32.6858    0 0 20
N01784           4.4723       2.9611     0 0 20
N00635           1.2362       2.8251     0 0 20
N00718           9.9185       17.5643    0 0 20
N01726           4.5729       1.8995     0 0 20
N01722           4.5729       3.2561     0 0 20
N02844           17.8759      3.8125     0 0 20
N01806           8.2949       1.7873     0 0 20
N02293           25.3073      6.6718     0 0 20
N01867           5.7169       2.4144     0 0 20
N00221           4.6108       1.0881     0 0 20
N00156           6.3496       4.5076     0 0 20
N01269           3.4871       2.0000     0 0 20
N02541           1.9674       6.1688     0 0 20
N01713           4.6289       1.9153     0 0 20
N00586           19.3881      4.0067     0 0 20
N02162           9.4436       2.8953     0 0 20
N00906           3.0856       2.7416     0 0 20
N00650           0.9630       2.9972     0 0 20
N02168           9.4700       3.4922     0 0 20
N02726           10.8902      6.6572     0 0 20
N00123           3.3223       2.1139     0 0 20
N01653           3.6785       1.4481     0 0 20
N01612           5.0604       9.4314     0 0 20
N01294           3.7790       2.4862     0 0 20
N00297           5.4110       7.7778     0 0 20
N00092           3.4215       2.0000     0 0 20
N00253           3.1895       1.4104     0 0 20
N02241           22.9556      6.5723     0 0 20
N02053           11.5803      1.8306     0 0 20
N02563           25.6560      2.9827     0 0 20
N00908           4.9278       3.2808     0 0 20
N00274           5.3370       4.2533     0 0 20
N02289           20.2125      8.0459     0 0 20
N02638           10.6249      3.8461     0 0 20
N02048           10.6481      6.9641     0 0 20
N02774           23.9900      2.0000     0 0 20
N02063           10.0059      5.4460     0 0 20
N01396           3.4515       5.0371     0 0 20
N02172           14.0636      2.6074     0 0 20
N01642           1.2850       3.3069     0 0 20
N02805           9.2986       6.1262     0 0 20
N02123           7.3793       3.9456     0 0 20
N02728           14.0671      2.3155     0 0 20
N02124           7.3293       13.5305    0 0 20
N01562           19.4250      3.0581     0 0 20
N01929           3.7166       4.8691     0 0 20
N02004           10.4377      2.3669     0 0 20
N02308           25.5993      19.0901    0 0 20
N00497           14.8907      2.8018     0 0 20
N02097           27.0172      3.7907     0 0 20
N01849           4.5916       2.8456     0 0 20
N00454           10.9171      1.7652     0 0 20
N00432           13.9873      6.3900     0 0 20
N01524           15.6624      4.4892     0 0 20
N02240           23.0227      0.5943     0 0 20
N01582           10.6183      6.9126     0 0 20
N01962           10.7216      13.7933    0 0 20
N00543           12.5201      2.0000     0 0 20
N01950           3.5771       2.3566     0 0 20
N00271           3.8906       3.6533     0 0 20
N01815           8.0545       2.4711     0 0 20
N00056           10.7428      5.1687     0 0 20
N01020           25.5130      3.4957     0 0 20
N00983           17.8465      5.7514     0 0 20
N01937           10.8208      12.3725    0 0 20
N02376           2.5640       2.3165     0 0 20
N01111           7.4949       3.2036     0 0 20
N00911           13.4613      6.7501     0 0 20
N00229           4.7847       1.2414     0 0 20
N01332           34.5166      14.6697    0 0 20
N01349           3.6163       1.5815     0 0 20
N00102           3.4029       4.5017     0 0 20
N00090           3.6360       10.4669    0 0 20
N00204           6.3068       4.5747     0 0 20
N02678           9.7565       2.0138     0 0 20
N01585           26.8404      6.4592     0 0 20
N01958           11.6752      13.3652    0 0 20
N00110           3.7413       4.4715     0 0 20
N00250           3.4157       9.0906     0 0 20
N02369           2.4801       2.2496     0 0 20
N02055           11.5569      10.7388    0 0 20
N00636           1.1538       3.3682     0 0 20
N01529           20.4190      4.5452     0 0 20
N02710           10.3955      2.0000     0 0 20
N00098           3.4392       4.7958     0 0 20
N00366           5.4985       0.5000     0 0 20
N00818           5.0870       6.6044     0 0 20
N02582           19.3021      1.1856     0 0 20
N02663           9.7765       2.0796     0 0 20
N02842           2.1576       1.8832     0 0 20
N02166           9.5153       6.1311     0 0 20
N00481           14.9481      3.4407     0 0 20
N00188           4.5318       4.6955     0 0 20
N01632           2.9085       2.1314     0 0 20
N00228           3.5559       2.3679     0 0 20
N02547           20.4785      0.5000     0 0 20
N02609           4.4168       2.7881     0 0 20
N01888           7.4525       1.6074     0 0 20
N00830           5.3507       5.5861     0 0 20
N00824           4.7386       3.3656     0 0 20
N00113           3.4409       2.4706     0 0 20
N00083           2.5106       2.2889     0 0 20
N00403           2.4273       2.2341     0 0 20
N00435           25.5264      11.6559    0 0 20
N01890           8.0714       19.7638    0 0 20
N00348           3.5147       2.2206     0 0 20
N00809           5.1027       6.3146     0 0 20
N01566           19.2775      3.2723     0 0 20
N02108           27.0712      1.7961     0 0 20
N00233           1.2460       2.9522     0 0 20
N01373           3.5492       4.7238     0 0 20
N01832           6.0151       5.4222     0 0 20
N01381           2.0731       1.7353     0 0 20
N02418           34.2294      5.0140     0 0 20
N00726           6.6423       8.0090     0 0 20
N02823           2.5419       2.1297     0 0 20
N02739           15.7337      4.5643     0 0 20
N00142           6.3256       3.4702     0 0 20
N02674           12.4316      0.5503     0 0 20
N00480           14.8546      2.7414     0 0 20
N02018           20.3852      7.0517     0 0 20
N01608           3.9002       2.2545     0 0 20
N01994           7.7230       2.9512     0 0 20
N00210           6.3000       4.1316     0 0 20
N02054           11.5611      10.9544    0 0 20
N02730           19.3521      2.1305     0 0 20
N02631           14.1083      2.0943     0 0 20
N01366           12.3001      2.0000     0 0 20
N00018           4.6505       4.8689     0 0 20
N00573           13.5249      6.8513     0 0 20
N02475           4.5920       3.3498     0 0 20
N00137           1.9670       3.1068     0 0 20
N02706           3.6056       3.5521     0 0 20
N02454           5.2508       1.8910     0 0 20
N00618           26.8890      6.6560     0 0 20
N01340           6.3861       2.2661     0 0 20
N02445           3.4061       2.2242     0 0 20
N01897           10.6096      5.6528     0 0 20
N00484           14.9666      2.2066     0 0 20
N02288           20.2425      10.2850    0 0 20
N00328           2.9738       2.6758     0 0 20
N02767           3.4502       2.1358     0 0 20
N02066           18.1413      9.7283     0 0 20
N01158           25.4192      23.6854    0 0 20
N01586           26.8765      3.8562     0 0 20
N01951           3.5578       1.5688     0 0 20
N00025           18.0533      1.3583     0 0 20
N00589           19.2551      1.1375     0 0 20
N02163           9.4600       3.5022     0 0 20
N00959           2.8673       5.6020     0 0 20
N00929           34.2153      4.6779     0 0 20
N00163           6.4365       5.9832     0 0 20
N02694           26.9802      21.9183    0 0 20
N01114           5.5288       2.8287     0 0 20
N02158           4.3424       3.0803     0 0 20
N00192           3.6885       1.4381     0 0 20
N00017           4.3324       1.6233     0 0 20
N02802           3.7817       1.5803     0 0 20
N01869           5.7304       1.9951     0 0 20
N01746           3.8155       2.8563     0 0 20
N02613           5.9382       4.3286     0 0 20
N00305           5.4521       3.0637     0 0 20
N02538           26.9907      15.6042    0 0 20
N02317           2.9938       2.3521     0 0 20
N00232           2.2612       2.4230     0 0 20
N00946           22.8902      24.5010    0 0 20
N00382           3.0185       2.2975     0 0 20
N00957           3.5517       1.5488     0 0 20
N00799           3.6679       2.8857     0 0 20
N00414           7.8254       26.6954    0 0 20
N02828           24.8602      9.6378     0 0 20
N01296           3.8396       4.3348     0 0 20
N02551           24.9825      16.7561    0 0 20
N01965           7.4720       5.0298     0 0 20
N00066           6.7478       2.4467     0 0 20
N02743           1.9450       5.1926     0 0 20
N02115           7.3516       5.2060     0 0 20
N01621           3.8041       1.6305     0 0 20
N00094           3.5215       5.1334     0 0 20
N01665           10.4455      3.1288     0 0 20
N01763           4.0479       1.8057     0 0 20
N00182           4.5508       0.9560     0 0 20
N01264           18.0378      2.7064     0 0 20
N01400           15.4929      2.1741     0 0 20
N01668           10.6508      2.2227     0 0 20
N01551           5.2363       2.1487     0 0 20
N01207           4.2312       5.7952     0 0 20
N00607           26.8517      14.3840    0 0 20
N00793           3.6884       1.4382     0 0 20
N01791           5.2255       2.0000     0 0 20
N00336           5.0960       1.6855     0 0 20
N02793           10.5655      9.2382     0 0 20
N00178           4.5008       0.6258     0 0 20
N02576           3.8917       0.6191     0 0 20
N02131           5.2736       1.9811     0 0 20
N02024           14.9689      3.4805     0 0 20
N01719           4.6649       1.9087     0 0 20
N01498           4.1817       5.7208     0 0 20
N01116           4.5583       4.0923     0 0 20
N02700           5.0077       1.7840     0 0 20
N02586           15.5439      1.9829     0 0 20
N01046           26.9150      3.0754     0 0 20
N02508           19.4081      3.9705     0 0 20
N01816           8.2849       1.5250     0 0 20
N02557           24.6997      2.0000     0 0 20
N02520           6.4778       5.1632     0 0 20
N02698           15.3324      12.8580    0 0 20
N01058           26.8604      4.2197     0 0 20
N01810           7.9045       2.3062     0 0 20
N00258           4.6518       1.8537     0 0 20
N00154           6.3032       3.2929     0 0 20
N01516           7.4105       2.1215     0 0 20
N01029           4.0217       1.8167     0 0 20
N00725           6.5313       2.0000     0 0 20
N00453           10.8759      3.8685     0 0 20
N01550           10.4943      1.9011     0 0 20
N00572           13.9666      5.1964     0 0 20
N01881           7.3702       0.5000     0 0 20
N02301           20.3248      17.4741    0 0 20
N02132           4.3712       2.6412     0 0 20
N00616           26.7364      11.0896    0 0 20
N01975           11.5569      10.9295    0 0 20
N00299           5.3602       1.7246     0 0 20
N01998           7.3352       4.2226     0 0 20
N02126           7.2205       10.6442    0 0 20
N01731           4.6089       2.2012     0 0 20
N02121           10.6025      3.4908     0 0 20
N02526           27.0873      22.7565    0 0 20
N00703           9.5395       8.9549     0 0 20
N01208           4.3312       3.2517     0 0 20
N01959           11.6740      13.1096    0 0 20
N02777           15.0224      3.5631     0 0 20
N02755           7.7419       6.5384     0 0 20
N01926           8.2138       2.2704     0 0 20
N01787           4.4624       3.3230     0 0 20
N01440           8.2449       0.9482     0 0 20
N02142           5.0936       2.8008     0 0 20
N02811           4.9653       4.8136     0 0 20
N01437           8.2508       2.3624     0 0 20
N02714           5.1601       0.5000     0 0 20
N00532           15.6263      3.0413     0 0 20
N01917           12.4538      6.8077     0 0 20
N01624           2.5141       2.0275     0 0 20
N02416           34.2600      5.4838     0 0 20
N01335           34.4850      10.9722    0 0 20
N00338           5.8661       2.4986     0 0 20
N01045           6.4312       6.0875     0 0 20
N02711           10.5358      8.0064     0 0 20
N02430           18.0502      2.1531     0 0 20
N00547           10.9183      2.5254     0 0 20
N01735           4.7220       2.5632     0 0 20
N01505           13.9073      4.8284     0 0 20
N01801           5.5762       3.4043     0 0 20
N01893           8.1031       21.5740    0 0 20
N02488           2.6088       2.4402     0 0 20
N01578           5.3578       2.4431     0 0 20
N00020           4.6458       3.7116     0 0 20
N01597           19.2850      2.5314     0 0 20
N02779           14.9578      3.5025     0 0 20
N00133           2.0211       4.4412     0 0 20
N02619           6.8905       1.4809     0 0 20
N00656           3.2466       1.3098     0 0 20
N02484           3.6566       1.6661     0 0 20
N01853           5.9251       3.6497     0 0 20
N01535           19.4606      1.0616     0 0 20
N01900           10.9079      5.8544     0 0 20
N00327           3.7414       1.5933     0 0 20
N00689           7.5125       2.6389     0 0 20
N00127           2.6409       4.4155     0 0 20
N00774           24.9102      24.0193    0 0 20
N01240           20.0656      0.8351     0 0 20
N00778           26.9755      6.4533     0 0 20
N02315           3.7695       2.2882     0 0 20
N02296           20.3125      16.9272    0 0 20
N01768           3.9328       2.7532     0 0 20
N01475           3.7593       0.5382     0 0 20
N01960           11.8044      12.7775    0 0 20
N01462           6.4224       5.5329     0 0 20
N00001           7.3199       2.2416     0 0 20
N01433           5.3643       3.5154     0 0 20
N01946           3.6060       3.5948     0 0 20
N00920           12.1882      23.7425    0 0 20
N01880           7.2249       9.3169     0 0 20
N00854           14.0201      0.5000     0 0 20
N02378           2.5501       5.0982     0 0 20
N00704           9.5843       8.5860     0 0 20
N02176           3.5217       1.7558     0 0 20
N01472           2.5921       1.9776     0 0 20
N02290           20.2485      13.0646    0 0 20
N00091           3.5648       4.1209     0 0 20
N00888           3.3352       2.0238     0 0 20
N00015           3.8486       2.1950     0 0 20
N00634           1.1755       2.9215     0 0 20
N00291           5.3495       6.1883     0 0 20
N01695           4.7315       1.7533     0 0 20
N02364           2.6836       2.9977     0 0 20
N00149           3.4895       2.0031     0 0 20
N01133           3.4647       7.1940     0 0 20
N00745           9.2845       5.1143     0 0 20
N01071           7.9066       3.7085     0 0 20
N00907           3.1456       1.4979     0 0 20
N00669           25.7359      7.5388     0 0 20
N00991           15.0726      3.8433     0 0 20
N00554           20.4007      4.0514     0 0 20
N01511           19.2509      1.6964     0 0 20
N00491           14.9830      2.8129     0 0 20
N01016           6.7539       9.9106     0 0 20
N02181           2.5697       2.0000     0 0 20
N02009           10.3738      2.0000     0 0 20
N01972           11.6524      13.2799    0 0 20
N01882           5.1017       6.6502     0 0 20
N02832           20.4049      4.4020     0 0 20
N02020           10.4601      2.0548     0 0 20
N00671           34.2294      4.7555     0 0 20
N01164           1.2560       1.7479     0 0 20
N02075           9.7717       6.3181     0 0 20
N02692           12.4988      10.4458    0 0 20
N01661           4.4712       3.0576     0 0 20
N01764           4.0379       1.9421     0 0 20
N00369           1.9209       6.7011     0 0 20
N01741           4.4516       2.4927     0 0 20
N02156           4.4830       8.2532     0 0 20
N00919           12.0510      3.4345     0 0 20
N01471           2.6497       1.9200     0 0 20
N01878           4.8816       16.8807    0 0 20
N00070           3.7886       2.2928     0 0 20
N00685           11.4109      2.0000     0 0 20
N00361           3.6099       6.5941     0 0 20
N00343           5.4762       0.5224     0 0 20
N02487           3.6339       1.8705     0 0 20
N01526           10.6732      2.0640     0 0 20
N00011           6.7468       2.4477     0 0 20
N02098           26.8972      6.3663     0 0 20
N00249           3.4080       2.3228     0 0 20
N01748           3.7127       1.9037     0 0 20
N02769           3.3949       2.4047     0 0 20
N00588           19.2019      1.7764     0 0 20
N02015           10.5798      5.6824     0 0 20
N01928           4.5324       0.6259     0 0 20
N01698           4.9178       2.8257     0 0 20
N01469           3.7947       1.4446     0 0 20
N01648           7.4905       1.7041     0 0 20
N01515           7.4713       1.7232     0 0 20
N01143           25.6314      6.1273     0 0 20
N02701           4.5516       2.9395     0 0 20
N00825           7.3203       1.7035     0 0 20
N02778           18.0630      1.1873     0 0 20
N00814           5.2348       0.8873     0 0 20
N01279           18.0302      2.7092     0 0 20
N02614           6.8544       1.2666     0 0 20
N00034           17.9577      5.4247     0 0 20
N02101           26.8948      10.7379    0 0 20
N01693           4.5503       1.6085     0 0 20
N02077           9.7705       5.0161     0 0 20
N00197           3.5871       1.6048     0 0 20
N02379           2.5699       2.0498     0 0 20
N01616           1.9916       2.8151     0 0 20
N02278           17.9077      5.4514     0 0 20
N01489           3.0038       2.5279     0 0 20
N00302           5.3963       1.6446     0 0 20
N02746           6.3670       2.8044     0 0 20
N02819           3.3861       2.3887     0 0 20
N01887           7.4672       2.3370     0 0 20
N01704           4.5708       2.6489     0 0 20
N01991           10.5351      4.6314     0 0 20
N01425           8.1306       3.1951     0 0 20
N01948           3.7152       3.1702     0 0 20
N00108           3.4658       2.2758     0 0 20
N00275           5.2075       4.0815     0 0 20
N01634           2.5398       2.0465     0 0 20
N02139           7.0887       2.0000     0 0 20
N00333           5.0843       2.4591     0 0 20
N01823           7.7648       13.5715    0 0 20
N00724           6.7223       8.4144     0 0 20
N00408           13.9166      4.8411     0 0 20
N01280           18.1327      6.0987     0 0 20
N01573           4.7542       3.1067     0 0 20
N02653           6.3893       6.2473     0 0 20
N01961           11.6931      15.6673    0 0 20
N00269           4.7496       1.2765     0 0 20
N01683           4.2777       2.0638     0 0 20
N00487           15.0136      1.7462     0 0 20
N00365           3.8590       2.5778     0 0 20
N01802           5.5362       5.3857     0 0 20
N01861           6.0150       4.6848     0 0 20
N02534           26.8232      6.3312     0 0 20
N00696           12.2700      4.4915     0 0 20
N00027           5.3684       1.2533     0 0 20
N00820           5.1791       3.5869     0 0 20
N01851           5.9391       4.3685     0 0 20
N02062           10.0119      7.3631     0 0 20
N00806           4.6161       2.4177     0 0 20
N01638           2.0046       1.8675     0 0 20
N00667           25.5097      11.7977    0 0 20
N01553           7.4725       2.8697     0 0 20
N02173           4.6408       2.2997     0 0 20
N00622           2.8128       6.0672     0 0 20
N01813           8.0687       2.8510     0 0 20
N01410           6.5090       5.4425     0 0 20
N01831           8.8013       2.1061     0 0 20
N02536           26.9907      13.3380    0 0 20
N00095           3.4415       4.0228     0 0 20
N01999           7.2720       2.1432     0 0 20
N01639           2.1352       1.7369     0 0 20
N00118           6.3755       9.6460     0 0 20
N01933           6.3553       1.9358     0 0 20
N00013           7.2787       2.0000     0 0 20
N01031           4.9853       1.8064     0 0 20
N02372           2.7841       2.4937     0 0 20
N01380           6.4725       6.4852     0 0 20
N02209           4.4438       3.5996     0 0 20
N00954           5.2636       2.3040     0 0 20
N01694           5.2108       1.8300     0 0 20
N00170           3.7749       4.2768     0 0 20
N02247           20.0939      7.5799     0 0 20
N01636           1.9121       2.1319     0 0 20
N01575           4.5789       1.9059     0 0 20
N02712           10.5258      7.3789     0 0 20
N00975           5.8874       3.3710     0 0 20
N02280           17.9841      2.9944     0 0 20
N00410           13.9149      5.1758     0 0 20
N00247           3.5027       2.4917     0 0 20
N00152           3.4993       2.5187     0 0 20
N02661           9.8587       0.5067     0 0 20
N01717           4.7720       2.7958     0 0 20
N00318           9.9309       17.4284    0 0 20
N01533           19.4150      3.4735     0 0 20
N02120           10.8028      1.2794     0 0 20
N01290           3.3590       1.8793     0 0 20
N00871           2.3776       2.1691     0 0 20
N02107           27.0548      5.1164     0 0 20
N02775           24.0312      2.3589     0 0 20
N01820           8.1448       2.4686     0 0 20
N01525           4.3707       2.8980     0 0 20
N01326           13.9721      5.1937     0 0 20
N02647           9.8827       3.4011     0 0 20
N02651           9.7537       3.2314     0 0 20
N00355           5.4790       2.6717     0 0 20
N02618           2.3913       2.0679     0 0 20
N02100           26.8748      6.0895     0 0 20
N00717           27.0596      2.0008     0 0 20
N01549           3.2383       2.0000     0 0 20
N02564           3.6281       3.5548     0 0 20
N00285           4.5348       2.6745     0 0 20
N02679           9.7705       5.2336     0 0 20
N02351           3.7103       1.0834     0 0 20
N02050           9.6484       4.6906     0 0 20
N01561           11.4521      1.9588     0 0 20
N00999           17.9112      5.0214     0 0 20
N01710           4.7015       1.7833     0 0 20
N01476           3.5011       2.2886     0 0 20
N01595           19.4002      3.9050     0 0 20
N01273           3.6844       1.8879     0 0 20
N00944           25.6319      23.7076    0 0 20
N01646           3.5470       6.0706     0 0 20
N00780           16.7620      0.7671     0 0 20
N00821           3.4538       4.5100     0 0 20
N00223           4.5866       0.8392     0 0 20
N01011           17.9978      3.4389     0 0 20
N01324           16.6959      0.9208     0 0 20
N01101           4.3875       0.6254     0 0 20
N02672           12.4533      0.5000     0 0 20
N00511           14.9855      2.5751     0 0 20
N02803           19.2127      1.8097     0 0 20
N01903           10.8224      11.8534    0 0 20
N01032           6.8768       1.3662     0 0 20
N00861           17.8453      2.7258     0 0 20
N01490           3.0548       3.2556     0 0 20
N02468           8.5936       1.4444     0 0 20
N00411           13.9849      6.8764     0 0 20
N00996           17.8628      4.3005     0 0 20
N00216           3.3661       7.2195     0 0 20
N01841           10.1241      1.8171     0 0 20
N02080           12.4016      0.9251     0 0 20
N01499           4.1405       4.1886     0 0 20
N02266           22.9214      0.5000     0 0 20
N01216           25.6687      24.1741    0 0 20
N00105           3.4856       1.8218     0 0 20
N00660           3.5889       1.5370     0 0 20
N01275           6.2452       2.4737     0 0 20
N00240           3.5139       2.7635     0 0 20
N00252           3.4998       3.1522     0 0 20
N02204           4.4723       4.3607     0 0 20
N02311           3.5161       1.7401     0 0 20
N02091           27.0864      5.4819     0 0 20
N00451           10.8564      3.1653     0 0 20
N01904           12.3714      4.3976     0 0 20
N01468           3.8140       1.4160     0 0 20
N00380           2.8685       2.0954     0 0 20
N02188           2.4298       2.2846     0 0 20
N00064           7.2928       2.1697     0 0 20
N02745           1.2950       3.0560     0 0 20
N02307           25.5094      19.5349    0 0 20
N01392           1.9959       3.9811     0 0 20
N01214           25.1873      2.0000     0 0 20
N02791           8.5205       1.9915     0 0 20
N01063           23.0327      0.5000     0 0 20
N00623           2.8462       9.7055     0 0 20
N01625           3.2360       1.6091     0 0 20
N00512           16.7706      0.9294     0 0 20
N00882           3.2483       1.9900     0 0 20
N00695           26.9947      1.6015     0 0 20
N00200           6.2692       1.6470     0 0 20
N02604           5.1801       2.6154     0 0 20
N02022           10.5683      4.1445     0 0 20
N02237           22.9540      5.9507     0 0 20
N02367           2.4577       2.0000     0 0 20
N01877           4.8957       15.8581    0 0 20
N00504           16.7843      0.9588     0 0 20
N00958           2.9120       2.0854     0 0 20
N01774           4.6777       1.7434     0 0 20
N01137           10.8989      10.0083    0 0 20
N02831           18.5498      3.1375     0 0 20
N00857           13.7471      3.0378     0 0 20
N01915           12.3426      3.6673     0 0 20
N01206           4.1412       2.0000     0 0 20
N01617           2.0678       2.1788     0 0 20
N01123           4.6003       1.8488     0 0 20
N01078           10.8191      11.9634    0 0 20
N02846           3.5154       1.7228     0 0 20
N01347           3.7734       1.7256     0 0 20
N01707           4.7863       1.7476     0 0 20
N01669           10.5796      1.8159     0 0 20
N00947           22.9292      24.3560    0 0 20
N01348           3.7774       1.6569     0 0 20
N00931           26.9102      17.8276    0 0 20
N02330           3.2341       1.4093     0 0 20
N00245           3.4504       2.6117     0 0 20
N00295           8.2725       0.7996     0 0 20
N01338           5.4815       2.0485     0 0 20
N01627           2.3999       2.2252     0 0 20
N01685           4.2477       2.0000     0 0 20
N00362           5.3966       1.3068     0 0 20
N00067           6.6968       2.6525     0 0 20
N00709           9.6562       10.5177    0 0 20
N00625           2.1033       5.9810     0 0 20
N01920           12.3765      4.6495     0 0 20
N02505           18.0260      6.3540     0 0 20
N01721           4.6002       9.4174     0 0 20
N00337           5.0136       2.7271     0 0 20
N02093           24.3341      4.1673     0 0 20
N00187           3.7733       4.0396     0 0 20
N00701           9.7145       14.0317    0 0 20
N00255           4.7978       3.2490     0 0 20
N02474           4.5866       0.7750     0 0 20
N00673           12.1990      2.6280     0 0 20
N01984           10.7344      8.5432     0 0 20
N02599           12.3590      4.9323     0 0 20
N02210           4.5516       2.9093     0 0 20
N00196           3.6953       0.6022     0 0 20
N00139           2.1112       2.4778     0 0 20
N01124           13.8253      3.5501     0 0 20
N02497           5.8869       2.5331     0 0 20
N02709           1.9634       2.2352     0 0 20
N00930           34.2977      7.8124     0 0 20
N02282           14.1067      9.1005     0 0 20
N01013           2.0793       2.6974     0 0 20
N02245           19.8618      1.7858     0 0 20
N02490           3.1348       2.7191     0 0 20
N01896           7.7407       3.4353     0 0 20
N01012           2.9332       1.9232     0 0 20
N00887           5.9450       3.9299     0 0 20
N01241           16.9071      1.9889     0 0 20
N01765           3.9679       2.6483     0 0 20
N00323           6.3480       4.9572     0 0 20
N00277           5.2340       4.0412     0 0 20
N01734           4.8978       1.6558     0 0 20
N00889           3.3307       2.0056     0 0 20
N00848           20.0703      17.7267    0 0 20
N01258           11.6707      13.3941    0 0 20
N00514           16.7548      1.6514     0 0 20
N00310           5.3202       3.0096     0 0 20
N01024           25.4830      3.5510     0 0 20
N01850           6.0291       4.9865     0 0 20
N00280           5.1515       2.3760     0 0 20
N00429           14.1713      8.2098     0 0 20
N01740           4.5332       1.9429     0 0 20
N01035           4.4121       2.6474     0 0 20
N01619           3.1956       3.1641     0 0 20
N00311           5.4391       5.4816     0 0 20
N02822           7.1863       9.3087     0 0 20
N00131           2.5521       3.8671     0 0 20
N02473           3.7407       1.3859     0 0 20
N01969           7.5220       12.6555    0 0 20
N00069           6.8010       1.5609     0 0 20
N01699           4.5016       1.6523     0 0 20
N00096           3.4932       3.4662     0 0 20
N02677           9.6341       2.0000     0 0 20
N02667           6.3575       2.3915     0 0 20
N02704           5.0901       1.9694     0 0 20
N01350           1.1070       3.1834     0 0 20
N02356           3.5587       2.0000     0 0 20
N02548           18.6398      6.9049     0 0 20
N00169           4.5642       1.6103     0 0 20
N01780           4.5364       2.1386     0 0 20
N01756           4.8573       1.5741     0 0 20
N00342           5.4820       1.2615     0 0 20
N00290           4.7496       6.5386     0 0 20
N01537           3.5512       2.8934     0 0 20
N02434           1.2168       3.7414     0 0 20
N01049           26.8102      8.3255     0 0 20
N01542           3.2457       2.0000     0 0 20
N02825           10.3838      2.0021     0 0 20
N01092           18.8144      21.5046    0 0 20
N01783           4.5164       2.1058     0 0 20
N00436           14.1474      11.6921    0 0 20
N01808           7.9069       2.3725     0 0 20
N00185           3.3647       2.8136     0 0 20
N01732           4.5989       1.8859     0 0 20
N01759           4.5072       1.9882     0 0 20
N00974           24.1045      3.0931     0 0 20
N02008           10.4644      3.2212     0 0 20
N01083           3.3557       6.5610     0 0 20
N02826           23.0214      3.5981     0 0 20
N00084           2.4184       2.1253     0 0 20
N01954           3.7912       1.4077     0 0 20
N02635           14.2031      4.5004     0 0 20
N02294           25.3780      10.4005    0 0 20
N00278           5.0821       4.1886     0 0 20
N01514           6.6745       4.4252     0 0 20
N02365           2.6011       2.7088     0 0 20
N01082           2.8185       2.0000     0 0 20
N01438           8.2586       1.6531     0 0 20
N00890           3.4107       1.8275     0 0 20
N02007           7.9672       5.1372     0 0 20
N01398           12.1907      3.7871     0 0 20
N02518           3.6419       2.8569     0 0 20
N00570           13.9562      7.1068     0 0 20
N01288           10.4496      2.5847     0 0 20
N00215           3.4161       3.0314     0 0 20
N02607           4.4352       2.9540     0 0 20
N00425           12.7304      1.9189     0 0 20
N00686           11.4934      3.3800     0 0 20
N02511           19.3607      4.6942     0 0 20
N02675           6.4259       5.7676     0 0 20
N02078           9.7905       5.8555     0 0 20
N00638           1.3060       2.9684     0 0 20
N02595           13.5025      13.0645    0 0 20
N00548           10.8468      4.2308     0 0 20
N00206           6.3377       2.1341     0 0 20
N01212           14.2125      20.7529    0 0 20
N02033           17.9371      3.3167     0 0 20
N01025           6.3668       8.5528     0 0 20
N01800           8.0587       2.1965     0 0 20
N01866           5.7845       2.5287     0 0 20
N02128           10.8328      1.0343     0 0 20
N01911           6.3361       2.6914     0 0 20
N00534           15.7264      4.7486     0 0 20
N01560           11.5662      1.8448     0 0 20
N01043           25.7848      18.4593    0 0 20
N02146           6.3840       3.0435     0 0 20
N02326           2.4384       2.1053     0 0 20
N01953           3.6483       1.6680     0 0 20
N00688           7.4320       4.6177     0 0 20
N00164           15.2102      6.2499     0 0 20
N00375           2.9264       4.2507     0 0 20
N02641           6.2676       3.7039     0 0 20
N00677           7.4467       1.1794     0 0 20
N02254           20.0797      1.0002     0 0 20
N01894           7.7507       15.8459    0 0 20
N00282           7.4949       0.5000     0 0 20
N01080           3.0848       2.8020     0 0 20
N00533           15.5983      2.5428     0 0 20
N00620           25.5354      4.8366     0 0 20
N01580           10.5998      6.5004     0 0 20
N00450           10.8976      3.2185     0 0 20
N00304           5.3902       1.6506     0 0 20
N01395           3.4615       2.0386     0 0 20
N01701           3.4561       3.6018     0 0 20
N00994           15.0577      3.0069     0 0 20
N00394           4.3124       1.6541     0 0 20
N01362           27.1045      7.0403     0 0 20
N00530           9.3793       3.9706     0 0 20
N01310           16.4565      2.3814     0 0 20
N00655           3.2766       1.2969     0 0 20
N00174           4.6266       0.5000     0 0 20
N00803           6.5323       3.3733     0 0 20
N00536           9.4742       3.6472     0 0 20
N02068           18.1259      5.7133     0 0 20
N01166           19.3667      4.2878     0 0 20
N00289           6.9368       0.5300     0 0 20
N02252           19.9934      4.4241     0 0 20
N00933           2.5423       2.4576     0 0 20
N00387           2.9123       3.2158     0 0 20
N00621           2.8911       2.5806     0 0 20
N00085           2.3554       2.2132     0 0 20
N00033           17.9977      5.9101     0 0 20
N01842           10.2148      9.8583     0 0 20
N00860           17.8312      3.0685     0 0 20
N01394           3.6264       10.2524    0 0 20
N02699           3.7698       0.7424     0 0 20
N00031           14.1875      6.5733     0 0 20
N01318           6.6123       10.8989    0 0 20
N00886           8.4705       2.0000     0 0 20
N02500           6.6394       31.3069    0 0 20
N01564           19.1926      1.7786     0 0 20
N00128           2.6144       1.9553     0 0 20
N00022           4.5634       3.7941     0 0 20
N02214           22.8478      0.6460     0 0 20
N02345           3.1303       2.0639     0 0 20
N01939           10.7923      10.9521    0 0 20
N02504           14.0985      5.4831     0 0 20
N00812           5.1515       11.5175    0 0 20
N01548           3.2948       1.9434     0 0 20
N01930           8.1838       2.0000     0 0 20
N02546           20.3185      3.0701     0 0 20
N01435           5.4627       3.2434     0 0 20
N02676           9.7293       4.6559     0 0 20
N01353           27.0238      20.9024    0 0 20
N02073           9.7788       3.0465     0 0 20
N01955           3.8386       1.6287     0 0 20
N01837           10.1099      1.8482     0 0 20
N02253           19.7763      2.0000     0 0 20
N01061           19.9836      6.1510     0 0 20
N01431           5.3403       3.9761     0 0 20
N02486           3.6416       1.8627     0 0 20
N02824           2.4497       2.1746     0 0 20
N01039           5.1715       1.8694     0 0 20
N00776           26.9925      11.6307    0 0 20
N02622           3.6508       1.4758     0 0 20
N02283           18.0499      4.5732     0 0 20
N02069           18.0316      5.4484     0 0 20
N02149           3.7143       4.0632     0 0 20
N00555           13.8371      4.7559     0 0 20
N01119           5.0408       2.0000     0 0 20
N02494           3.1535       1.7844     0 0 20
N02649           9.7633       3.0537     0 0 20
N02117           7.3653       3.3151     0 0 20
N02496           2.2012       2.2301     0 0 20
N01854           5.9152       3.3009     0 0 20
N00492           14.9406      1.8888     0 0 20
N01977           10.7426      8.4363     0 0 20
N00334           4.9853       2.1769     0 0 20
N00428           12.6717      2.2851     0 0 20
N00032           18.0228      5.5754     0 0 20
N00507           14.9346      1.9123     0 0 20
N02273           22.9411      18.7173    0 0 20
N00388           4.3992       1.8539     0 0 20
N00875           5.8145       2.9537     0 0 20
N01204           20.2583      0.5000     0 0 20
N00639           2.2512       1.7054     0 0 20
N01583           10.6408      6.7720     0 0 20
N01918           12.3731      4.7925     0 0 20
N01519           3.8359       1.5095     0 0 20
N01974           11.6424      12.6388    0 0 20
N01723           4.3898       2.5309     0 0 20
N00157           15.2249      9.2664     0 0 20
N02437           16.5627      2.8614     0 0 20
N02625           4.9132       8.5207     0 0 20
N02219           18.6751      11.4901    0 0 20
N00114           6.2951       1.5635     0 0 20
N00356           5.1918       1.9710     0 0 20
N00949           23.0254      24.5663    0 0 20
N00641           1.9558       1.9163     0 0 20
N02809           6.5710       1.4288     0 0 20
N01120           5.1608       1.9193     0 0 20
N01292           3.9006       3.5998     0 0 20
N00629           1.0689       3.1093     0 0 20
N02112           10.5920      1.8035     0 0 20
N00262           4.6600       2.4836     0 0 20
N01630           1.9841       1.8881     0 0 20
N00260           4.8128       2.4364     0 0 20
N02059           18.3749      0.5000     0 0 20
N02232           22.9605      9.0266     0 0 20
N02517           6.3486       1.9361     0 0 20
N02448           10.7742      6.3309     0 0 20
N02102           27.0348      5.1327     0 0 20
N00630           1.1349       3.0433     0 0 20
N01620           3.1949       2.9239     0 0 20
N00373           1.0764       3.3371     0 0 20
N01211           14.3230      28.5576    0 0 20
N02169           4.4144       8.5443     0 0 20
N00370           2.0041       5.1711     0 0 20
N01628           2.7403       2.6026     0 0 20
N00993           17.9570      1.7700     0 0 20
N00633           0.9640       3.6009     0 0 20
N01465           6.2671       3.4815     0 0 20
N01715           4.6150       1.8698     0 0 20
N02836           20.3907      3.8912     0 0 20
N01898           10.6108      6.6896     0 0 20
N00220           5.0570       7.3193     0 0 20
N01689           3.5872       2.9229     0 0 20
N01922           5.3817       5.1424     0 0 20
N02558           1.9459       5.6829     0 0 20
N01477           3.5211       2.8699     0 0 20
N01870           5.1160       2.4037     0 0 20
N01749           3.5385       2.5326     0 0 20
N02628           5.1875       12.0085    0 0 20
N00571           13.9497      5.4769     0 0 20
N00413           10.2264      10.8656    0 0 20
N01552           7.5397       0.7748     0 0 20
N01554           5.2418       4.1301     0 0 20
N02720           6.4040       2.1312     0 0 20
N02798           19.4132      1.7898     0 0 20
N00377           3.0229       3.1765     0 0 20
N00792           3.7515       1.3751     0 0 20
N01036           6.9668       0.5000     0 0 20
N01089           26.8757      12.7953    0 0 20
N02695           26.9703      16.8974    0 0 20
N00567           14.0297      8.8825     0 0 20
N00439           25.7024      0.5000     0 0 20
N00391           4.4474       2.1121     0 0 20
N01186           13.5025      7.3224     0 0 20
N01614           1.2962       2.7230     0 0 20
N02617           2.4223       1.8147     0 0 20
N01388           2.7943       1.9266     0 0 20
N00193           4.5324       0.7444     0 0 20
N01386           2.6738       1.8960     0 0 20
N02086           3.5504       1.0395     0 0 20
N00827           4.7211       3.2850     0 0 20
N00863           14.1902      19.0118    0 0 20
N01048           26.7617      8.2833     0 0 20
N02737           15.7764      4.1777     0 0 20
N00181           4.4709       0.6557     0 0 20
N00316           27.0809      5.9735     0 0 20
N01278           27.0821      4.6048     0 0 20
N00358           3.8459       2.5608     0 0 20
N00371           2.0459       3.0107     0 0 20
N01641           1.8721       2.0000     0 0 20
N00227           3.4580       3.7236     0 0 20
N00165           25.7255      3.0203     0 0 20
N01743           3.9160       2.5808     0 0 20
N01402           15.2759      7.5101     0 0 20
N00352           3.5109       5.4370     0 0 20
N00134           1.9672       4.6047     0 0 20
N02109           10.5758      11.9973    0 0 20
N02724           15.5265      2.0185     0 0 20
N01892           8.0031       8.2224     0 0 20
N01343           3.6697       1.4569     0 0 20
N01706           4.7156       1.7692     0 0 20
N01544           3.0314       2.0802     0 0 20
N00306           5.4355       3.9941     0 0 20
N01422           5.9468       4.1095     0 0 20
N01786           4.4765       3.1827     0 0 20
N01251           10.8640      0.5000     0 0 20
N01006           14.1622      7.3859     0 0 20
N02303           20.3537      18.6651    0 0 20
N00574           13.6011      3.8301     0 0 20
N01022           25.8470      23.1765    0 0 20
N01436           8.2767       0.5000     0 0 20
N01682           5.4002       1.6406     0 0 20
N00500           14.8829      1.8768     0 0 20
N00284           4.6270       2.1984     0 0 20
N00201           6.3447       2.7567     0 0 20
N01663           2.4273       1.8726     0 0 20
N01053           26.8441      14.9080    0 0 20
N01494           3.8438       1.4341     0 0 20
N01369           15.5153      0.5000     0 0 20
N02238           22.9463      8.4560     0 0 20
N02138           10.6678      2.7257     0 0 20
N00351           3.6236       3.5593     0 0 20
N00088           0.9747       3.5145     0 0 20
N02277           17.9685      3.0100     0 0 20
N01770           4.6961       1.7250     0 0 20
N01924           5.3995       5.3908     0 0 20
N00036           17.7865      3.9141     0 0 20
N02275           18.1041      3.1014     0 0 20
N00076           20.3685      2.0413     0 0 20
N02046           10.4693      1.0608     0 0 20
N01596           19.2350      1.3549     0 0 20
N00101           3.3757       2.7477     0 0 20
N02657           9.8795       3.4044     0 0 20
N02812           5.0060       2.0610     0 0 20
N00140           2.1812       2.3045     0 0 20
N02304           14.3230      30.7233    0 0 20
N00828           3.6766       3.8876     0 0 20
N01070           7.9699       4.3595     0 0 20
N01364           27.0950      5.4999     0 0 20
N02741           15.6829      4.5214     0 0 20
N01752           3.8802       3.5909     0 0 20
N01463           6.2782       4.0557     0 0 20
N02800           5.0153       1.7764     0 0 20
N00832           1.8893       2.0000     0 0 20
N01371           6.5090       7.4248     0 0 20
N01407           25.6443      1.7095     0 0 20
N00068           6.7510       1.7574     0 0 20
N01856           6.9369       0.5379     0 0 20
N00610           34.3114      9.5723     0 0 20
N02782           17.8953      2.8384     0 0 20
N00151           3.4546       2.4689     0 0 20
N01487           2.9185       1.9000     0 0 20
N00502           14.8846      2.4739     0 0 20
N02465           12.6104      2.9858     0 0 20
N01272           3.6056       2.1667     0 0 20
N02159           4.2424       4.6676     0 0 20
N00325           3.8216       2.4844     0 0 20
N02243           19.9929      6.0598     0 0 20
N01745           3.0238       2.9590     0 0 20
N00877           3.3449       1.8934     0 0 20
N00653           1.1124       3.1443     0 0 20
N00273           5.2374       4.2922     0 0 20
N02449           10.6642      4.9980     0 0 20
N01056           26.8732      3.4844     0 0 20
N01769           4.8161       1.6050     0 0 20
N00340           3.4647       2.2536     0 0 20
N00242           3.4762       3.1901     0 0 20
N01618           3.1525       1.5277     0 0 20
N01846           10.1512      1.7690     0 0 20
N00345           3.5167       2.8188     0 0 20
N00531           15.5123      2.0000     0 0 20
N01970           10.6927      13.6097    0 0 20
N01355           4.6682       1.9018     0 0 20
N01330           13.9755      6.9795     0 0 20
N02439           6.8291       11.3643    0 0 20
N02071           9.8511       3.6661     0 0 20
N00286           4.4234       2.6772     0 0 20
N00679           5.3594       4.9940     0 0 20
N01328           13.9359      2.4336     0 0 20
N02489           3.1048       2.3218     0 0 20
N02407           18.7520      6.3544     0 0 20
N00399           2.9647       2.5642     0 0 20
N01895           10.6225      7.2966     0 0 20
N00397           4.3749       2.8133     0 0 20
N01626           3.1654       2.7078     0 0 20
N01315           6.7670       10.2238    0 0 20
N02406           15.0794      4.6970     0 0 20
N00246           3.4857       5.3492     0 0 20
N01146           25.5508      4.3149     0 0 20
N01122           5.7669       2.5259     0 0 20
N00515           16.8057      3.5741     0 0 20
N02665           9.7788       2.7172     0 0 20
N00553           20.2290      11.2768    0 0 20
N00372           2.0883       2.2043     0 0 20
N00141           2.2312       2.2886     0 0 20
N02717           4.9936       2.5894     0 0 20
N01874           4.6131       1.0858     0 0 20
N02410           18.5274      2.7156     0 0 20
N01971           7.4325       1.3471     0 0 20
N01863           5.7945       2.5187     0 0 20
N01662           4.3221       4.3445     0 0 20
N00243           3.5072       2.7703     0 0 20
N02688           12.3238      7.0839     0 0 20
N02608           4.2930       2.0000     0 0 20
N01788           4.4818       2.0030     0 0 20
N01304           20.3121      0.6428     0 0 20
N01868           5.6804       2.0000     0 0 20
N02785           9.7788       1.6043     0 0 20
N00330           3.7959       1.5528     0 0 20
N02702           4.5656       2.7948     0 0 20
N02094           24.2725      4.0481     0 0 20
N00175           3.6385       1.4881     0 0 20
N02425           10.6804      12.3696    0 0 20
N01678           3.5596       1.7872     0 0 20
N01368           12.3923      4.6570     0 0 20
N01623           2.4360       2.1216     0 0 20
N01992           7.9482       6.9011     0 0 20
N01248           1.9885       2.3870     0 0 20
N00627           2.8497       9.1377     0 0 20
N02553           24.9743      23.7101    0 0 20
N02036           18.1338      0.5000     0 0 20
N01931           6.2953       1.7874     0 0 20
N00674           4.6376       1.8538     0 0 20
N02433           1.1657       2.6009     0 0 20
N01635           1.9946       1.8775     0 0 20
N00479           14.7598      2.0000     0 0 20
N02414           25.6664      2.5865     0 0 20
N02673           12.4216      0.5420     0 0 20
N01154           25.5037      21.5598    0 0 20
N00566           9.4565       3.4356     0 0 20
N00153           3.5576       1.1801     0 0 20
N02515           16.7877      1.4827     0 0 20
N00237           0.9440       2.1482     0 0 20
N01307           25.6259      1.2986     0 0 20
N00160           3.5062       2.7117     0 0 20
N00924           25.5446      3.2269     0 0 20
N02696           6.3379       2.3918     0 0 20
N01052           26.7994      5.8717     0 0 20
N00287           4.5156       3.2040     0 0 20
N02309           25.4511      12.7710    0 0 20
N02533           26.8090      6.4876     0 0 20
N01908           12.3301      2.1468     0 0 20
N00819           5.0886       6.2641     0 0 20
N02689           27.0222      0.5501     0 0 20
N00259           4.8347       1.2199     0 0 20
N00815           3.3861       6.5879     0 0 20
N02157           4.3844       7.7780     0 0 20
N00296           4.7813       5.6920     0 0 20
N01792           5.5062       2.6406     0 0 20
N01987           10.5451      4.5656     0 0 20
N02810           4.7513       6.8680     0 0 20
N00456           13.7971      4.1972     0 0 20
N02796           3.6601       1.4665     0 0 20
N00357           3.5920       7.1955     0 0 20
N00130           2.5798       1.4344     0 0 20
N00611           34.2353      6.1160     0 0 20
N01708           4.5042       2.8010     0 0 20
N01872           4.9669       3.7198     0 0 20
N00349           3.5875       5.4275     0 0 20
N01300           3.7474       3.5451     0 0 20
N00917           12.0852      8.1375     0 0 20
N02002           7.6594       2.0000     0 0 20
N00612           24.0535      2.8750     0 0 20
N02316           3.8079       4.8968     0 0 20
N02498           5.8069       2.5408     0 0 20
N01007           14.0762      5.5054     0 0 20
N01647           7.4328       1.9276     0 0 20
N01047           26.9998      0.8543     0 0 20
N00303           5.3179       2.9576     0 0 20
N00007           3.5192       5.3772     0 0 20
N00437           25.7523      5.9416     0 0 20
N00381           2.9491       3.9354     0 0 20
N01446           7.9481       2.3553     0 0 20
N02555           18.7210      9.2816     0 0 20
N02383           2.5614       1.8240     0 0 20
N01847           5.9983       4.4523     0 0 20
N00434           13.9639      7.3745     0 0 20
N01443           5.9652       3.5423     0 0 20
N02466           8.5653       1.7907     0 0 20
N02049           9.7338       3.3010     0 0 20
N01833           6.8956       1.2070     0 0 20
N02585           15.6848      4.5384     0 0 20
N00739           15.7358      2.5834     0 0 20
N02727           14.1775      4.2518     0 0 20
N02286           14.1242      7.2210     0 0 20
N01906           10.9140      4.6819     0 0 20
N01361           16.6972      1.1220     0 0 20
N02471           4.3928       2.5895     0 0 20
N02381           2.5439       1.7027     0 0 20
N00115           6.2413       2.4936     0 0 20
N02838           15.1114      5.1414     0 0 20
N01312           16.5927      4.4000     0 0 20
N00808           5.1382       7.4087     0 0 20
N01144           25.5566      4.7487     0 0 20
N02644           9.6655       3.7442     0 0 20
N00189           4.4537       0.6729     0 0 20
N01883           5.0157       8.8582     0 0 20
N00987           15.0277      3.3942     0 0 20
N01534           19.3228      3.5933     0 0 20
N01313           16.6971      6.2125     0 0 20
N02658           9.6483       2.9768     0 0 20
N01073           7.9709       6.2775     0 0 20
N01411           6.4168       3.2816     0 0 20
N01397           12.1766      4.7911     0 0 20
N02064           18.1368      31.0747    0 0 20
N00901           3.1982       1.3358     0 0 20
N00865           14.0255      8.5673     0 0 20
N01483           4.6332       1.0657     0 0 20
N01485           3.7444       1.3822     0 0 20
N01044           25.7240      21.5853    0 0 20
N02523           25.6476      2.4442     0 0 20
N00412           7.7548       18.3831    0 0 20
N02718           6.3365       1.9049     0 0 20
N00065           7.4470       2.1064     0 0 20
N00690           12.5071      12.8813    0 0 20
N00217           3.2557       1.9900     0 0 20
N02719           6.2192       1.8984     0 0 20
N01658           6.3269       2.3120     0 0 20
N01390           2.8814       1.8395     0 0 20
N00162           6.5172       4.0377     0 0 20
N02244           20.0071      6.4385     0 0 20
N02656           9.8694       3.3522     0 0 20
N00150           3.4386       2.2936     0 0 20
N00499           15.0166      2.1707     0 0 20
N02306           25.6293      19.5471    0 0 20
N01594           19.3369      3.5443     0 0 20
N01125           3.0045       2.5154     0 0 20
N00990           17.9312      7.3636     0 0 20
N02354           3.1972       1.4462     0 0 20
N01502           3.7414       3.5363     0 0 20
N00779           26.7678      7.3740     0 0 20
N00244           3.4625       3.2409     0 0 20
N02645           9.8958       3.9756     0 0 20
N01309           6.7723       10.9767    0 0 20
N00642           1.9337       1.9855     0 0 20
N00539           12.6204      2.9479     0 0 20
N00331           3.8131       2.1748     0 0 20
N01666           10.5296      1.8659     0 0 20
N01824           7.9248       6.4227     0 0 20
N02017           10.5401      4.1072     0 0 20
N00186           3.7928       1.5037     0 0 20
N01963           10.9880      0.5000     0 0 20
N02716           4.8547       2.3123     0 0 20
N02786           6.4626       3.5853     0 0 20
N02529           27.0307      4.1148     0 0 20
N00219           3.4625       3.7825     0 0 20
N00702           9.6202       11.2022    0 0 20
N00608           26.9825      22.4055    0 0 20
N01725           4.8101       7.2518     0 0 20
N02626           5.0332       11.2413    0 0 20
N01346           3.5716       1.4589     0 0 20
N01657           6.2970       0.6525     0 0 20
N01684           4.3682       2.9310     0 0 20
N00213           1.0570       3.3368     0 0 20
N00873           2.2370       2.0000     0 0 20
N00276           5.2058       3.9286     0 0 20
N02540           1.9209       4.1853     0 0 20
N02327           6.7078       0.5000     0 0 20
N01574           4.4989       1.9859     0 0 20
N02105           27.0632      5.5268     0 0 20
N02630           5.1766       3.5210     0 0 20
N00205           6.5487       1.3055     0 0 20
N02446           3.4149       2.2154     0 0 20
N01033           4.5560       9.0068     0 0 20
N02817           3.5283       2.3150     0 0 20
N01921           10.8050      12.3536    0 0 20
N00691           12.4400      10.1089    0 0 20
N00268           4.6576       1.8338     0 0 20
N02697           15.2418      10.5217    0 0 20
N00136           1.9037       4.4914     0 0 20
N00668           25.6714      2.6307     0 0 20
N00826           7.2532       8.7330     0 0 20
N00678           7.5273       1.0987     0 0 20
N01629           3.7975       0.5000     0 0 20
N00298           5.4402       1.6189     0 0 20
N02409           18.6304      7.9258     0 0 20
N01365           27.0955      0.5000     0 0 20
N01871           5.0865       2.7722     0 0 20
N01449           10.2141      10.0610    0 0 20
N00722           9.7408       14.1670    0 0 20
N02391           4.5494       2.7753     0 0 20
N00226           4.9228       10.3965    0 0 20
N02751           27.0250      19.0858    0 0 20
N00645           2.0787       1.7934     0 0 20
N02028           18.0078      2.7224     0 0 20
N02260           16.7864      2.2518     0 0 20
N01843           8.1665       4.1852     0 0 20
N02550           24.9602      20.0062    0 0 20
N02584           15.7569      4.5792     0 0 20
N01291           18.5680      3.7741     0 0 20
N00191           3.7008       1.4258     0 0 20
N00346           3.6067       2.3568     0 0 20
N00314           34.5073      14.5432    0 0 20
N01008           17.9977      6.6940     0 0 20
N02269           20.4575      26.1472    0 0 20
N00236           1.0517       3.2020     0 0 20
N01271           4.6120       1.0869     0 0 20
N00829           4.7543       1.8157     0 0 20
N01609           2.8711       2.4904     0 0 20
N02272           22.8597      1.4012     0 0 20
N01430           6.8860       1.0305     0 0 20
N00786           1.9621       2.1425     0 0 20
N02643           9.7383       3.3775     0 0 20
N00184           3.2862       2.0000     0 0 20
N00510           14.8959      2.5750     0 0 20
N00918           12.1658      22.5838    0 0 20
N02627           5.0842       6.2705     0 0 20
N01479           4.4264       2.4588     0 0 20
N01497           4.3231       0.9581     0 0 20
N01777           4.5776       2.4218     0 0 20
N02427           3.6560       10.1875    0 0 20
N02830           22.8185      0.7813     0 0 20
N00433           14.0967      11.7285    0 0 20
N01559           4.5016       1.5886     0 0 20
N00235           1.1125       3.1586     0 0 20
N00948           22.9830      25.6839    0 0 20
N02686           12.4847      11.5286    0 0 20
N00489           10.6131      7.4198     0 0 20
N02074           12.2428      3.5911     0 0 20
N01599           10.9368      7.9149     0 0 20
N02424           10.8008      11.2646    0 0 20
N01935           10.7908      10.8304    0 0 20
N00549           12.6804      2.9314     0 0 20
N00074           15.0702      4.3297     0 0 20
N00508           15.0026      2.5171     0 0 20
N00324           6.2752       4.4319     0 0 20
N00870           2.2970       10.2146    0 0 20
N01555           7.4625       1.6505     0 0 20
N01523           2.8411       8.0338     0 0 20
N02305           25.5677      20.4266    0 0 20
N01812           5.5862       2.0994     0 0 20
N00158           6.4636       5.0368     0 0 20
N02029           18.0439      2.7725     0 0 20
N00644           1.9981       1.8740     0 0 20
N00300           5.2702       1.8757     0 0 20
N01835           8.1525       3.0567     0 0 20
N00023           25.6354      22.0236    0 0 20
N00501           14.9242      2.0142     0 0 20
N02161           4.2824       6.2746     0 0 20
N00540           13.9754      1.5819     0 0 20
N00927           34.0780      2.0000     0 0 20
N00872           2.3824       2.2051     0 0 20
N01737           4.4698       2.8413     0 0 20
N02251           20.0839      7.2439     0 0 20
N01163           3.3166       0.9301     0 0 20
N00643           1.9568       1.9153     0 0 20
N00683           11.5031      5.0626     0 0 20
N02530           27.0590      5.8549     0 0 20
N02623           3.6568       1.4698     0 0 20
N01700           4.5916       2.3514     0 0 20
N01441           8.1165       3.5930     0 0 20
N02377           2.4777       2.1779     0 0 20
N01492           3.9708       1.9344     0 0 20
N01817           8.2861       1.3569     0 0 20
N01543           2.9508       2.8260     0 0 20
N01782           4.6977       1.7234     0 0 20
N02804           19.3772      2.6566     0 0 20
N02332           6.6034       22.3882    0 0 20
N01001           18.0751      4.6003     0 0 20
N00537           4.4382       8.8748     0 0 20
N01530           20.2869      3.8538     0 0 20
N01128           3.4407       1.7975     0 0 20
N02136           7.3434       6.0295     0 0 20
N01484           5.1682       6.9493     0 0 20
N00597           19.3631      4.3599     0 0 20
N00925           12.2070      20.8318    0 0 20
N00684           11.6235      1.7462     0 0 20
N02170           9.3934       4.1270     0 0 20
N01444           8.1481       7.4221     0 0 20
N01426           5.9452       3.7188     0 0 20
N02575           3.2035       1.3149     0 0 20
N01466           3.7499       1.4953     0 0 20
N02668           6.4277       3.2515     0 0 20
N02461           12.5343      1.9859     0 0 20
N00159           6.5192       4.6356     0 0 20
N01938           10.8556      7.8739     0 0 20
N01753           3.9709       1.9685     0 0 20
N01000           18.0119      6.1937     0 0 20
N01464           6.2001       2.0000     0 0 20
N01677           4.4191       0.5000     0 0 20
N01054           26.7541      12.2770    0 0 20
N00202           6.2553       1.5793     0 0 20
N01331           13.9297      2.3828     0 0 20
N01454           3.5280       1.0968     0 0 20
N00452           10.8152      3.8147     0 0 20
N02065           18.0632      7.7064     0 0 20
N02285           14.0795      9.6290     0 0 20
N02083           3.5641       0.9542     0 0 20
N01042           12.2367      6.0863     0 0 20
N01118           5.4955       3.2607     0 0 20
N00831           5.3147       3.8672     0 0 20
N00322           9.7265       3.1675     0 0 20
N02375           3.1948       2.1998     0 0 20
N02829           22.7185      5.7800     0 0 20
N01804           8.0345       3.8499     0 0 20
N00171           3.7325       1.3941     0 0 20
N01002           20.1930      5.4406     0 0 20
N00670           34.1096      3.6742     0 0 20
N01531           20.2069      5.1735     0 0 20
N02752           26.9102      22.5502    0 0 20
N00941           3.5458       2.9238     0 0 20
N01944           3.5934       2.0000     0 0 20
N01742           4.3610       2.1121     0 0 20
N01121           7.6333       2.3203     0 0 20
N00335           4.9777       1.8140     0 0 20
N02388           3.7887       0.5088     0 0 20
N01952           3.6285       1.4981     0 0 20
N02432           1.2266       2.9561     0 0 20
N00155           15.2735      8.2201     0 0 20
N01213           25.3804      9.2135     0 0 20
N02178           2.5997       1.9700     0 0 20
N01691           4.3598       2.1196     0 0 20
N00482           14.8971      2.7954     0 0 20
N02192           2.3437       2.0000     0 0 20
N01267           11.5157      6.5621     0 0 20
N00117           6.3084       7.0092     0 0 20
N02103           27.0048      4.0788     0 0 20
N00321           9.6343       4.6964     0 0 20
N01840           6.0551       5.0070     0 0 20
N02006           7.9382       4.2759     0 0 20
N01891           7.9890       8.5734     0 0 20
N01532           13.9876      11.0607    0 0 20
N00093           3.5948       5.5533     0 0 20
N00112           3.5046       2.5449     0 0 20
N00783           34.3716      11.1556    0 0 20
N01799           8.0445       2.2883     0 0 20
N01793           7.6273       2.1250     0 0 20
N00218           3.4722       4.6268     0 0 20
N00697           12.2267      6.0103     0 0 20
N00256           4.7531       1.2730     0 0 20
N01336           34.5133      14.2179    0 0 20
N00103           3.4430       2.2418     0 0 20
N02392           4.5387       2.2380     0 0 20
N02799           15.7468      4.5164     0 0 20
N00603           26.7462      10.9035    0 0 20
N00796           3.8017       1.3249     0 0 20
N00859           17.8948      4.1572     0 0 20
N02501           2.4408       2.1029     0 0 20
N01760           3.5332       2.6889     0 0 20
N01803           7.9545       2.5788     0 0 20
N01060           26.8802      14.3925    0 0 20
N02147           6.3153       0.6341     0 0 20
N00617           26.8308      10.1489    0 0 20
N00104           3.5269       1.6720     0 0 20
N00002           3.5470       5.8532     0 0 20
N00727           25.6259      1.4976     0 0 20
N02213           5.0453       2.8186     0 0 20
N01303           20.3345      0.7483     0 0 20
N00270           3.9243       2.4019     0 0 20
N01405           15.3524      13.7954    0 0 20
N02722           15.7021      4.5637     0 0 20
N02637           10.6342      5.2700     0 0 20
N00363           3.6140       4.8067     0 0 20
N01004           17.9589      6.0021     0 0 20
N00100           3.4186       2.6006     0 0 20
N02633           14.2171      5.3356     0 0 20
N02835           20.2985      4.4145     0 0 20
N02302           20.3937      26.2327    0 0 20
N00395           4.3487       2.8395     0 0 20
N02646           26.7864      20.7781    0 0 20
N00858           14.0343      0.8533     0 0 20
N01297           3.7474       3.4991     0 0 20
N00876           5.7027       2.7005     0 0 20
N01205           20.1661      8.6720     0 0 20
N00915           12.0210      3.2221     0 0 20
N02127           10.8344      1.0116     0 0 20
N01822           6.8768       1.8581     0 0 20
N02510           19.4446      2.8204     0 0 20
N00292           5.4495       8.5213     0 0 20
N01762           4.0317       1.4841     0 0 20
N00535           19.3742      1.7299     0 0 20
N01836           8.1842       2.3855     0 0 20
N02175           3.6089       1.4471     0 0 20
N00251           3.5112       2.8832     0 0 20
N02371           2.6211       2.6376     0 0 20
N02160           4.1824       2.8653     0 0 20
N02129           4.3895       2.5928     0 0 20
N01622           2.4413       2.0053     0 0 20
N00367           2.9632       7.0541     0 0 20
N00378           1.9656       5.3553     0 0 20
N01934           3.6929       3.9257     0 0 20
N00224           5.1842       2.8696     0 0 20
N00493           16.6560      0.7786     0 0 20
N00177           3.4856       2.1181     0 0 20
N00010           6.6886       2.5059     0 0 20
N00546           10.8476      4.0973     0 0 20
N00921           25.6938      10.1198    0 0 20
N00320           9.5537       12.6859    0 0 20
N02412           25.5285      18.1269    0 0 20
N00398           4.3263       1.6650     0 0 20
N01943           3.7171       3.8425     0 0 20
N01587           26.7647      7.3294     0 0 20
N01645           3.4576       4.4592     0 0 20
N02605           3.7475       0.5500     0 0 20
N02390           4.5294       2.4590     0 0 20
N00443           10.6682      10.9455    0 0 20
N00699           34.6195      13.4179    0 0 20
N01744           3.7283       1.5757     0 0 20
N02167           9.4653       4.1528     0 0 20
N02549           18.6598      9.4762     0 0 20
N01091           15.0978      5.2472     0 0 20
N02744           1.0617       3.5067     0 0 20
N02106           27.0664      2.9425     0 0 20
N02023           20.5058      1.6047     0 0 20
N02256           20.0981      8.0381     0 0 20
N00791           34.7319      11.3344    0 0 20
N02552           24.9743      15.6183    0 0 20
N02833           20.2016      9.7212     0 0 20
N02072           9.8595       3.4244     0 0 20
N01705           4.4848       2.0000     0 0 20
N01527           17.9525      6.0759     0 0 20
N01504           14.2202      17.3482    0 0 20
N01750           3.8668       2.4694     0 0 20
N02291           14.2626      16.0957    0 0 20
N00602           26.6952      10.1437    0 0 20
N01720           4.4798       2.9572     0 0 20
N00652           1.0264       3.2047     0 0 20
N02119           7.3434       11.8794    0 0 20
N00364           3.5508       2.3363     0 0 20
N01389           2.8390       1.8819     0 0 20
N01127           3.4031       9.3431     0 0 20
N01772           4.6873       1.7337     0 0 20
N01521           3.6120       6.3446     0 0 20
N01333           4.3755       1.0787     0 0 20
N02594           13.5342      5.7735     0 0 20
N01302           4.7357       2.1295     0 0 20
N02366           2.5499       2.1939     0 0 20
N00194           4.5908       3.2008     0 0 20
N01607           3.0748       3.4489     0 0 20
N00392           4.1263       3.7487     0 0 20
N02216           22.8189      26.7201    0 0 20
N02088           3.5704       0.9479     0 0 20
N02319           4.3405       1.1678     0 0 20
N02818           3.4361       2.2753     0 0 20
N00985           18.0333      1.3250     0 0 20
N01606           3.0985       3.3197     0 0 20
N00787           2.4276       1.8728     0 0 20
N02470           8.5618       1.5239     0 0 20
N02191           2.5298       1.7299     0 0 20
N00087           1.1051       3.5586     0 0 20
N02208           4.5360       6.8748     0 0 20
N02047           10.5698      5.2470     0 0 20
N02259           20.0514      0.8823     0 0 20
N02415           25.7076      5.6771     0 0 20
N00997           17.8365      5.5456     0 0 20
N01140           19.4350      2.7321     0 0 20
N00254           4.7681       1.2580     0 0 20
N00279           5.0708       1.9700     0 0 20
N01384           2.0449       2.3880     0 0 20
N00445           25.6727      3.0914     0 0 20
N02690           12.5347      12.4855    0 0 20
N00016           3.7483       2.2800     0 0 20
N01413           9.5756       12.5298    0 0 20
N02314           3.8083       2.5927     0 0 20
N01547           5.0489       1.7428     0 0 20
N00402           3.2947       2.8772     0 0 20
N02469           8.5841       2.9999     0 0 20
N01459           16.5521      2.2080     0 0 20
N02352           3.1886       1.4549     0 0 20
N01420           10.1948      7.4855     0 0 20
N01065           23.0056      6.0546     0 0 20
N01598           19.3772      3.6333     0 0 20
N02092           24.3225      3.8334     0 0 20
N01858           5.9474       4.2081     0 0 20
N01034           4.5221       3.3276     0 0 20
N01919           12.4770      9.1883     0 0 20
N00485           15.0049      2.0724     0 0 20
N01811           7.4949       3.2480     0 0 20
N01377           4.7713       4.9361     0 0 20
N00405           3.0603       2.2228     0 0 20
N02612           5.9347       4.4380     0 0 20
N02276           18.1841      5.0358     0 0 20
N02182           2.7966       2.1880     0 0 20
N02747           4.7624       1.7367     0 0 20
N00864           14.0980      12.1616    0 0 20
N01859           5.9250       4.0905     0 0 20
N01855           6.8860       1.3566     0 0 20
N01317           25.6346      1.4568     0 0 20
N01736           4.7196       7.1616     0 0 20
N01876           4.7570       1.7421     0 0 20
N01015           6.7523       9.0756     0 0 20
N02000           7.8125       3.9831     0 0 20
N00928           34.1204      3.0851     0 0 20
N01727           4.8377       1.5834     0 0 20
N00494           16.7259      0.7954     0 0 20
N01265           10.5981      6.3037     0 0 20
N00710           9.6602       13.0962    0 0 20
N00811           5.0615       6.2932     0 0 20
N00498           16.7659      0.7587     0 0 20
N00707           16.6676      0.7670     0 0 20
N02355           3.6691       1.0891     0 0 20
N00347           3.4347       1.8113     0 0 20
N01254           10.8644      1.1793     0 0 20
N01363           27.1773      15.5006    0 0 20
N02408           18.6180      4.7672     0 0 20
N00431           14.0613      10.1525    0 0 20
N02246           19.9424      4.3642     0 0 20
N00833           1.9317       5.2206     0 0 20
N00952           22.7685      12.5012    0 0 20
N00916           11.9510      2.0000     0 0 20
N02085           3.5704       0.9479     0 0 20
N01432           5.2843       1.8407     0 0 20
N00014           4.3263       2.3536     0 0 20
N02113           10.5143      1.8811     0 0 20
N01038           5.2515       1.8346     0 0 20
N01285           20.1561      8.6820     0 0 20
N00107           6.3944       3.0258     0 0 20
N01794           7.7741       2.0000     0 0 20
N02735           14.1671      4.9647     0 0 20
N02374           3.1148       2.7478     0 0 20
N01009           20.5042      0.5000     0 0 20
N01250           25.6177      23.8493    0 0 20
N00267           4.7676       1.2584     0 0 20
N01656           6.2570       0.6925     0 0 20
N02199           4.4299       2.3354     0 0 20
N01945           3.7052       2.9934     0 0 20
N02738           19.3732      1.9611     0 0 20
N01814           7.9569       2.7652     0 0 20
N02284           17.9828      5.3453     0 0 20
N00682           11.4109      2.0000     0 0 20
N02118           7.2316       1.8335     0 0 20
N02499           5.9074       3.8295     0 0 20
N01406           25.6972      1.9721     0 0 20
N02096           27.0364      3.3334     0 0 20
N01311           16.5465      3.2321     0 0 20
N00816           5.1989       0.5000     0 0 20
N01141           19.3996      3.6736     0 0 20
N01827           8.2367       1.5507     0 0 20
N00649           1.2050       3.0318     0 0 20
N02463           8.7513       5.4551     0 0 20
N01385           2.6197       1.9500     0 0 20
N01352           1.9433       6.2152     0 0 20
N02648           9.9627       2.5016     0 0 20
N00681           11.5469      10.6181    0 0 20
N01709           5.2008       1.8400     0 0 20
N02503           18.0892      3.8264     0 0 20
N00856           10.5717      3.9086     0 0 20
N01198           13.3221      2.0000     0 0 20
N00905           3.0128       2.2132     0 0 20
N02079           12.3192      3.6052     0 0 20
N01993           7.7007       2.4328     0 0 20
N02141           4.3612       2.7192     0 0 20
N00166           15.1802      6.1196     0 0 20
N01299           3.6767       2.0000     0 0 20
N01899           5.3854       6.4629     0 0 20
N01973           11.6391      12.7425    0 0 20
N00005           3.3892       5.1140     0 0 20
N00692           6.1745       2.1166     0 0 20
N02279           17.8981      4.6296     0 0 20
N02542           18.7010      8.5781     0 0 20
N02274           22.8597      0.8992     0 0 20
N01461           6.4917       4.2852     0 0 20
N02114           10.4355      1.9600     0 0 20
N02640           6.3581       3.0686     0 0 20
N00045           14.0223      2.0000     0 0 20
N00506           14.9131      3.5392     0 0 20
N00777           26.8538      3.7964     0 0 20
N01838           9.9596       1.9740     0 0 20
N02507           19.3551      4.3445     0 0 20
N01927           8.2348       3.6796     0 0 20
N00040           5.4734       3.2637     0 0 20
N01692           4.4603       2.4395     0 0 20
N00648           1.1245       3.0760     0 0 20
N01690           5.0808       2.2791     0 0 20
N01528           18.0197      6.5208     0 0 20
N00894           6.4803       4.5205     0 0 20
N00353           3.5250       5.0579     0 0 20
N00693           6.2473       3.4736     0 0 20
N00605           26.8738      3.6796     0 0 20
N00773           26.9562      5.3840     0 0 20
N00909           4.7220       9.1988     0 0 20
N00980           5.2860       1.1909     0 0 20
N01210           14.0455      9.5677     0 0 20
N00817           4.6224       1.0765     0 0 20
N00376           4.3592       2.2573     0 0 20
N00879           3.5480       0.9703     0 0 20
N02620           3.4885       1.8373     0 0 20
N02815           4.3198       2.0000     0 0 20
N02250           20.1645      4.2027     0 0 20
N01098           4.3514       0.7418     0 0 20
N01383           2.0809       2.1511     0 0 20
N01023           25.7565      4.7597     0 0 20
N01314           12.2049      5.1013     0 0 20
N02634           14.2680      5.4736     0 0 20
N02058           9.9836       5.2077     0 0 20
N00853           18.6296      1.8490     0 0 20
N01337           34.5388      14.4589    0 0 20
N01964           10.8980      6.2506     0 0 20
N01378           10.6871      3.7722     0 0 20
N00900           4.6019       2.7168     0 0 20
N02514           16.6772      0.7574     0 0 20
N00075           15.1207      7.0875     0 0 20
N02299           20.4425      0.9723     0 0 20
N02110           10.5558      10.3609    0 0 20
N01055           26.8039      9.4475     0 0 20
N00199           6.2577       1.6153     0 0 20
N02067           18.1773      7.4618     0 0 20
N01825           10.6879      3.5625     0 0 20
N01508           4.4582       10.3400    0 0 20
N00344           5.4000       2.4556     0 0 20
N02671           6.4536       6.1816     0 0 20
N00143           6.4128       5.1846     0 0 20
N02502           13.7971      3.4905     0 0 20
N00438           10.6458      9.8048     0 0 20
N02010           10.6059      7.1543     0 0 20
N01247           2.0890       2.2112     0 0 20
N02537           26.8897      11.7273    0 0 20
N00556           20.2016      5.5912     0 0 20
N02544           18.5980      1.7084     0 0 20
N02328           2.5209       2.3847     0 0 20
N02231           22.9540      2.7415     0 0 20
N00374           0.9906       3.5838     0 0 20
N00914           12.0352      3.0155     0 0 20
N01257           11.6691      13.4210    0 0 20
N00963           4.4116       0.7971     0 0 20
N02827           24.9884      6.1148     0 0 20
N02076           9.7493       4.7980     0 0 20
N01081           2.9744       2.0000     0 0 20
N01947           3.5695       2.9853     0 0 20
N01795           7.8845       2.7792     0 0 20
N02583           19.3913      2.3540     0 0 20
N01084           3.5357       2.7418     0 0 20
N00406           2.9779       2.0228     0 0 20
N02568           20.5197      1.4026     0 0 20
N00265           4.8476       1.1527     0 0 20
N00651           0.9708       3.3970     0 0 20
N00288           4.5334       3.2439     0 0 20
N00926           12.3307      4.4996     0 0 20
N02090           3.6511       0.8673     0 0 20
N00264           4.8630       1.9455     0 0 20
N00389           3.0328       2.6602     0 0 20
N02313           3.0710       7.6405     0 0 20
N02413           25.5250      21.8436    0 0 20
N02570           14.1949      8.2643     0 0 20
N02636           10.7129      3.1243     0 0 20
N02539           1.9849       4.1227     0 0 20
N00024           14.3006      29.0341    0 0 20
N01538           3.4787       2.8559     0 0 20
N01306           25.5846      1.5838     0 0 20
N01447           8.0487       3.8120     0 0 20
N00440           25.7276      4.9314     0 0 20
N02731           15.7521      4.5873     0 0 20
N01103           3.6963       0.8220     0 0 20
N00393           4.2763       2.5242     0 0 20
N01100           4.3455       0.7971     0 0 20
N02681           9.7693       5.1619     0 0 20
N00132           2.0658       4.0999     0 0 20
N02174           2.9073       1.8136     0 0 20
N00312           34.8127      15.0815    0 0 20
N01640           2.2675       2.0203     0 0 20
N01757           4.3718       2.1620     0 0 20
N00922           12.0571      2.6249     0 0 20
N02660           9.7665       2.3234     0 0 20
N00721           26.7681      7.7239     0 0 20
N01387           2.7519       2.1898     0 0 20
N00801           6.4494       0.5000     0 0 20
N02297           20.2325      10.6038    0 0 20
N01830           6.9868       3.2053     0 0 20
N00720           9.8353       15.0595    0 0 20
N00951           22.8392      18.9450    0 0 20
N01956           6.3940       2.2238     0 0 20
N00446           13.9807      6.4189     0 0 20
N00646           2.1668       1.7053     0 0 20
N02662           9.6565       3.2343     0 0 20
N01434           5.3827       8.6391     0 0 20
N02263           19.8859      1.9081     0 0 20
N01040           27.0848      5.8289     0 0 20
N00222           4.5624       0.5642     0 0 20
N01115           5.4321       2.9253     0 0 20
N01319           6.7539       9.0338     0 0 20
N00490           14.9707      2.3226     0 0 20
N01218           25.6177      23.0909    0 0 20
N01266           11.6275      1.4479     0 0 20
N01712           4.5072       1.9776     0 0 20
N02443           3.5085       1.7478     0 0 20
N02843           17.9270      3.1780     0 0 20
N01281           26.9156      20.6334    0 0 20
N02467           8.5759       2.9187     0 0 20
N00263           4.8270       2.9095     0 0 20
N00904           2.9366       2.0000     0 0 20
N01287           10.4878      1.9076     0 0 20
N00513           16.6643      0.7703     0 0 20
N01308           6.7739       10.6527    0 0 20
N01539           3.5912       4.6010     0 0 20
N00569           14.0167      9.9088     0 0 20
N00444           14.1555      9.1148     0 0 20
N02629           5.1039       6.2507     0 0 20
N02545           18.4374      2.0000     0 0 20
N00855           14.1278      0.7339     0 0 20
N02566           18.0341      3.3972     0 0 20
N00183           3.3668       5.0083     0 0 20
N01162           3.3194       0.7547     0 0 20
N01730           4.4841       1.6061     0 0 20
N00054           10.6183      6.5584     0 0 20
N01905           10.8408      11.6426    0 0 20
N00225           5.1066       6.2481     0 0 20
N01327           14.0067      8.8654     0 0 20
N01393           3.5332       6.1317     0 0 20
N01967           7.4225       1.2420     0 0 20
N01865           5.6945       3.6023     0 0 20
N01660           3.7066       1.7454     0 0 20
N02816           3.5183       3.0300     0 0 20
N02787           6.4593       2.6630     0 0 20
N01584           3.6993       1.4273     0 0 20
N02565           3.5475       2.9134     0 0 20
N01520           3.8178       1.6615     0 0 20
N00161           3.3809       2.8247     0 0 20
N01914           6.5017       4.2741     0 0 20
N00628           2.8823       6.6658     0 0 20
N02052           10.6704      11.9973    0 0 20
N02736           14.0671      2.4422     0 0 20
N01374           3.4692       5.1504     0 0 20
N01773           4.7878       1.8911     0 0 20
N01886           4.7406       1.8294     0 0 20
N01513           19.2350      1.9672     0 0 20
N02458           25.3473      10.3690    0 0 20
N02373           2.5782       2.4032     0 0 20
N01655           6.2353       0.7141     0 0 20
N00179           4.4399       0.7938     0 0 20
N02776           8.1224       22.0423    0 0 20
N02687           12.2067      3.3816     0 0 20
N02513           16.6772      0.7574     0 0 20
N01334           4.2861       3.0611     0 0 20
N01456           3.6363       0.8820     0 0 20
N02780           15.0054      4.0606     0 0 20
N02016           10.5959      4.2488     0 0 20
N00590           19.3351      3.2688     0 0 20
N00172           3.7374       1.3892     0 0 20
N01839           9.8889       3.3368     0 0 20
N01728           4.4781       1.6120     0 0 20
N01510           19.1703      2.0000     0 0 20
N02472           4.4012       2.5811     0 0 20
N02556           24.8102      5.8377     0 0 20
N02019           20.4842      2.0139     0 0 20
N02840           18.7264      3.5621     0 0 20
N01142           19.4443      3.0538     0 0 20
N01126           2.8050       2.4323     0 0 20
N01135           20.0890      6.3899     0 0 20
N01486           3.7938       1.6921     0 0 20
N01714           4.6150       1.8698     0 0 20
N00214           3.5361       2.7413     0 0 20
N02032           18.0034      4.8292     0 0 20
N00097           3.5015       4.3872     0 0 20
N01452           4.4558       1.6344     0 0 20
N00795           3.6387       1.5043     0 0 20
N01517           7.3199       2.2209     0 0 20
N00422           2.4136       2.1128     0 0 20
N00604           26.9586      2.5521     0 0 20
N01480           4.5070       2.9011     0 0 20
N02522           25.6792      21.6743    0 0 20
N01611           2.8438       1.9329     0 0 20
N02025           18.0361      2.7990     0 0 20
N00869           2.0881       3.7618     0 0 20
N01724           4.5688       1.9716     0 0 20
N02723           15.5939      2.5614     0 0 20
N01460           6.3812       4.8623     0 0 20
N02177           2.8973       1.9642     0 0 20
N00109           3.4598       2.2723     0 0 20
N02325           2.0590       2.2295     0 0 20
N00706           34.7679      14.7453    0 0 20
N01651           6.7310       2.1073     0 0 20
N00542           12.6304      2.8401     0 0 20
N02262           20.0291      1.1555     0 0 20
N00126           2.7270       1.8427     0 0 20
N01409           6.5313       8.5588     0 0 20
N00307           5.2669       1.7922     0 0 20
N01019           25.7552      10.2460    0 0 20
N02389           4.4299       2.5929     0 0 20
N00350           5.5014       1.6815     0 0 20
N02440           6.7583       9.8222     0 0 20
N02143           5.2778       1.3703     0 0 20
N02509           19.4922      1.1511     0 0 20
N02845           20.1569      3.6799     0 0 20
N00708           9.6117       8.1021     0 0 20
N01493           3.9019       2.7278     0 0 20
N00934           1.0554       3.1806     0 0 20
N00782           27.0238      17.7029    0 0 20
N01761           3.5467       2.1743     0 0 20
N01215           25.2573      2.9709     0 0 20
N00488           10.6543      7.1651     0 0 20
N01284           34.6459      14.0351    0 0 20
N00385           4.3487       1.1596     0 0 20
N02521           25.6346      2.1224     0 0 20
N02713           4.9853       1.8064     0 0 20
N02382           3.6011       2.1848     0 0 20
N01481           4.3852       2.7629     0 0 20
N00698           34.5836      14.1313    0 0 20
N01072           10.6319      4.5432     0 0 20
N02655           9.8899       1.8120     0 0 20
N01563           19.2732      2.0813     0 0 20
N02527           26.9947      2.2210     0 0 20
N02081           3.7146       1.9334     0 0 20
N01540           3.4177       3.0298     0 0 20
N02794           10.4678      1.9276     0 0 20
N00600           26.7942      11.2685    0 0 20
N02729           15.7124      4.4798     0 0 20
N01852           8.7926       4.0657     0 0 20
N01342           6.3841       5.0143     0 0 20
N02095           24.3025      4.0116     0 0 20
N00106           3.5080       1.6909     0 0 20
N00992           18.0270      1.1513     0 0 20
N00541           13.8614      2.4582     0 0 20
N00659           3.5281       1.6918     0 0 20
N01989           7.9390       7.7733     0 0 20
N02654           6.2045       3.9403     0 0 20
N00198           6.2853       0.8623     0 0 20
N02813           4.9936       1.7981     0 0 20
N01940           3.6319       2.3350     0 0 20
N01470           2.8367       7.9136     0 0 20
N01450           4.3821       2.4678     0 0 20
N00173           3.6645       1.4621     0 0 20
N01260           17.9554      2.6734     0 0 20
N02021           10.4801      3.5153     0 0 20
N01412           9.6513       3.7592     0 0 20
N02116           7.3693       2.0436     0 0 20
N02082           3.6241       0.9710     0 0 20
N02734           15.7329      5.1750     0 0 20
N01581           10.6083      6.4307     0 0 20
N01057           27.0086      1.0155     0 0 20
N02070           18.0956      26.2800    0 0 20
N01864           5.8744       2.5019     0 0 20
N01354           26.9120      10.2604    0 0 20
N01798           8.0999       0.9605     0 0 20
N00122           3.3930       2.4319     0 0 20
N01995           7.3752       4.4854     0 0 20
N01576           4.5218       1.9630     0 0 20
N01051           26.8878      15.2502    0 0 20
N00902           3.1119       1.2003     0 0 20
N00903           3.0037       1.9833     0 0 20
N00591           19.4246      1.7829     0 0 20
N02476           5.8652       4.1663     0 0 20
N02485           3.7291       1.3975     0 0 20
N02491           1.1439       3.4393     0 0 20
N00379           2.0586       10.0736    0 0 20
N02519           9.8236       1.5894     0 0 20
N02483           4.8231       2.4603     0 0 20
N02512           19.3575      3.6117     0 0 20
N01610           2.7767       2.0000     0 0 20
N00503           15.0243      3.7554     0 0 20
N02765           3.4983       2.8554     0 0 20
N02682           9.8537       11.3111    0 0 20
N00203           6.2406       2.9013     0 0 20
N00631           1.2550       3.3907     0 0 20
N02005           10.6251      4.1406     0 0 20
N00239           3.4751       2.2714     0 0 20
N01885           4.7482       3.2447     0 0 20
N01652           6.7910       1.6264     0 0 20
N02196           4.4441       2.5752     0 0 20
N01495           3.7574       2.4812     0 0 20
N00711           34.6236      9.1887     0 0 20
N01821           10.1299      4.9791     0 0 20
N01923           8.3055       4.2162     0 0 20
N01274           3.6907       1.8615     0 0 20
N01428           5.9251       4.4976     0 0 20
N01796           7.6556       2.6599     0 0 20
N02615           6.7307       3.3677     0 0 20
N02493           3.0675       2.1774     0 0 20
N01771           4.8177       1.6088     0 0 20
N01997           7.3493       4.0485     0 0 20
N00168           4.4221       0.7045     0 0 20
N02385           2.6866       2.0020     0 0 20
N01845           9.8528       2.0000     0 0 20
N00021           4.5983       5.5806     0 0 20
N02140           7.1793       7.0926     0 0 20
N00486           14.9966      2.2983     0 0 20
N01482           3.7008       1.4258     0 0 20
N01686           4.3477       2.3834     0 0 20
N02318           4.3347       1.8464     0 0 20
N02281           20.2525      4.9485     0 0 20
N02312           2.9904       6.9484     0 0 20
N00794           3.7786       1.7062     0 0 20
N00424           10.8880      3.4866     0 0 20
N02249           16.8984      2.5685     0 0 20
N01458           19.4408      3.6740     0 0 20
N01996           7.5973       1.9420     0 0 20
N02179           2.6421       1.9276     0 0 20
N02801           5.0077       2.6149     0 0 20
N01320           6.8483       9.5783     0 0 20
N02258           16.8971      1.9522     0 0 20
N00401           3.2041       1.8763     0 0 20
N00483           14.9777      3.2538     0 0 20
N01408           15.5129      1.0166     0 0 20
N01421           8.7938       2.1520     0 0 20
N01090           20.2902      3.4841     0 0 20
N01067           4.4847       2.5681     0 0 20
N00810           4.5483       2.3997     0 0 20
N02329           2.6015       3.1725     0 0 20
N02060           18.1913      6.1803     0 0 20
N00416           10.2264      10.6282    0 0 20
N00923           25.5113      3.2342     0 0 20
N00632           1.1800       2.6922     0 0 20
N00057           8.6018       3.3659     0 0 20
N02606           3.5234       2.4736     0 0 20
N01339           9.7221       3.1719     0 0 20
N01062           19.8759      1.9712     0 0 20
N00147           6.3225       7.3096     0 0 20
N01751           3.9609       1.8701     0 0 20
N02659           9.7441       1.9712     0 0 20
N02749           27.0247      19.3722    0 0 20
N01295           3.8619       4.1107     0 0 20
N02212           5.0078       2.8579     0 0 20
N02137           7.2493       8.1102     0 0 20
N00878           3.2624       1.9759     0 0 20
N00891           3.4780       2.0000     0 0 20
N02754           5.8961       3.0800     0 0 20
N02450           10.6142      3.6887     0 0 20
N00813           5.1542       6.0850     0 0 20
N00575           25.5347      20.0435    0 0 20
N02187           2.5104       1.9199     0 0 20
N02587           16.6530      4.1743     0 0 20
N00124           3.3309       2.2351     0 0 20
N01733           4.7978       1.8818     0 0 20
N01491           3.8802       2.9236     0 0 20
N00988           14.9681      3.5393     0 0 20
N02725           10.5825      2.6991     0 0 20
N02084           3.5796       1.2115     0 0 20
N02133           10.8440      0.8565     0 0 20
N01414           9.6838       11.4378    0 0 20
N00551           20.4916      1.8251     0 0 20
N02834           20.2385      4.3353     0 0 20
N02057           9.9011       3.4619     0 0 20
N00190           4.3677       0.9828     0 0 20
N00368           2.0086       8.5430     0 0 20
N00798           3.4971       2.0970     0 0 20
N01702           4.8063       1.7154     0 0 20
N00111           3.5937       1.2084     0 0 20
N01255           7.3434       9.7412     0 0 20
N00955           5.1736       2.4313     0 0 20
N01860           5.8245       6.1363     0 0 20
N00384           3.0071       2.6212     0 0 20
N02616           3.2584       1.4353     0 0 20
N02261           16.8571      1.4519     0 0 20
N00800           3.7995       4.3432     0 0 20
N01738           4.3698       2.3016     0 0 20
N02766           3.4177       2.3993     0 0 20
N00654           1.0389       3.4710     0 0 20
N01074           7.7507       8.4273     0 0 20
N01488           2.8597       1.9588     0 0 20
N00019           5.5021       3.2381     0 0 20
N00637           1.1639       3.2279     0 0 20
N00317           27.0488      2.2017     0 0 20
N02370           2.5301       2.1953     0 0 20
N01755           3.9363       2.5587     0 0 20
N02528           27.0086      0.5000     0 0 20
N02270           20.4037      26.1845    0 0 20
N02125           7.1993       9.5927     0 0 20
N02740           10.9052      10.6530    0 0 20
N00332           5.8685       2.5096     0 0 20
N01826           7.7547       2.8114     0 0 20
N01478           3.5511       2.4467     0 0 20
N02436           16.6334      7.6621     0 0 20
N00238           3.3857       7.9314     0 0 20
N01344           3.6016       1.4289     0 0 20
N00234           1.1950       3.3622     0 0 20
N00675           4.7084       2.2627     0 0 20
N00116           6.2501       4.8734     0 0 20
N01270           3.6171       1.9620     0 0 20
N01659           3.7738       1.3528     0 0 20
N00313           34.7296      14.6396    0 0 20
N02087           3.5580       1.2127     0 0 20
N01941           3.6095       2.2545     0 0 20
N00998           17.8648      4.4977     0 0 20
N00775           26.8720      5.7325     0 0 20
N00261           4.7200       7.1210     0 0 20
N02821           7.1889       8.9898     0 0 20
N01113           5.4463       3.0248     0 0 20
N01474           3.1676       1.8008     0 0 20
N02652           9.7606       2.9861     0 0 20
N02122           10.9683      1.2572     0 0 20
N00945           22.8892      23.7121    0 0 20
N02841           18.6280      2.5909     0 0 20
N01401           15.4165      10.5627    0 0 20
N01256           11.6615      13.3274    0 0 20
N01501           3.7997       8.0493     0 0 20
N02134           7.2093       3.4697     0 0 20
N00354           3.5971       4.2448     0 0 20
N02310           20.4078      26.3412    0 0 20
N00404           3.2141       1.4293     0 0 20
N00301           5.4410       1.6616     0 0 20
N01026           6.3532       6.1912     0 0 20
N01351           2.0024       3.5523     0 0 20
N00315           34.9243      12.7446    0 0 20
N02715           4.9353       1.8564     0 0 20
N01649           6.7028       2.4917     0 0 20
N00308           5.4091       4.2961     0 0 20
N00449           12.7446      1.7756     0 0 20
N00008           6.5823       1.6293     0 0 20
N02464           8.5653       1.8555     0 0 20
N00211           0.9124       2.0000     0 0 20
N02164           9.4153       2.9226     0 0 20
N00426           10.8675      3.1542     0 0 20
N01496           3.7638       6.2726     0 0 20
N00004           3.4609       2.2712     0 0 20
N02680           9.7609       6.0959     0 0 20
N00400           3.1841       1.8009     0 0 20
N02271           22.8408      0.5724     0 0 20
N01711           4.6996       2.3562     0 0 20
N02099           26.9172      6.6211     0 0 20
N00614           24.1317      4.8185     0 0 20
N00441           14.0755      10.6539    0 0 20
N00409           13.9731      5.1115     0 0 20
N00680           6.3904       5.0245     0 0 20
N00979           5.3766       1.8105     0 0 20
N01613           1.2911       2.7432     0 0 20
N01252           10.9446      1.0417     0 0 20
N02462           8.6013       2.8607     0 0 20
N01844           8.1481       3.2643     0 0 20
N02611           3.6975       0.6000     0 0 20
N00852           17.9428      4.7763     0 0 20
N00797           3.5876       2.9391     0 0 20
N01503           25.7392      4.3530     0 0 20
N01809           7.8023       2.0772     0 0 20
N02447           10.8542      10.0122    0 0 20
N01901           10.9885      0.7380     0 0 20
N00626           2.8850       10.3838    0 0 20
N02742           10.9768      8.8222     0 0 20
N00850           18.0017      1.4248     0 0 20
N00063           3.5023       5.7355     0 0 20
N01797           5.4503       1.8152     0 0 20
N00026           5.2878       2.5067     0 0 20
N01316           6.7823       11.6637    0 0 20
N02589           19.4951      2.2239     0 0 20
N01370           6.3756       2.9788     0 0 20
N01572           4.8357       1.9590     0 0 20
N01293           4.6461       2.0000     0 0 20
N02531           26.9925      13.9420    0 0 20
N01329           13.8849      2.0000     0 0 20
N02721           18.4774      2.1762     0 0 20
N00619           25.6160      2.2051     0 0 20
N02685           12.2583      6.0863     0 0 20
N01076           8.4007       5.1296     0 0 20
N01916           12.5237      0.9764     0 0 20
N02268           25.0155      6.9348     0 0 20
N01448           8.1492       9.8927     0 0 20
N00266           4.7755       1.2506     0 0 20
N01718           4.4998       3.0314     0 0 20
N01129           3.3531       1.8852     0 0 20
N02056           6.4876       2.7418     0 0 20
N02236           22.9240      9.4717     0 0 20
N00609           34.3747      10.5447    0 0 20
N02300           20.2348      10.2464    0 0 20
N02428           3.8178       2.2924     0 0 20
N02417           34.2565      4.3130     0 0 20
N01145           25.5202      18.5008    0 0 20
N02457           14.2184      21.2297    0 0 20
N02650           9.8538       0.5000     0 0 20
N02368           2.5815       2.1637     0 0 20
N02013           18.2034      9.1365     0 0 20
N01298           3.8996       2.9771     0 0 20
N01601           27.0554      21.6606    0 0 20
N02495           1.2860       1.8444     0 0 20
N02664           6.3681       3.1763     0 0 20
N00248           3.5157       2.8526     0 0 20
N00281           5.2222       1.8369     0 0 20
N01467           3.6887       1.6122     0 0 20
N02239           22.9556      0.9986     0 0 20
N02441           5.0936       1.9188     0 0 20
N01591           24.9825      20.9729    0 0 20
N02792           8.5771       1.3236     0 0 20
N02248           20.1694      1.2532     0 0 20
N01862           5.8045       2.7081     0 0 20
N02670           6.4018       3.6912     0 0 20
N01442           8.0403       2.9686     0 0 20
N02111           10.6655      1.9748     0 0 20
N01131           3.3531       2.1896     0 0 20
N00457           13.8331      4.2556     0 0 20
N00676           3.2757       2.0443     0 0 20
N00055           10.8252      3.9928     0 0 20
N00687           11.4915      1.9194     0 0 20
N02707           3.5837       2.1289     0 0 20
N00294           5.3812       3.4294     0 0 20
N02104           27.0409      4.4475     0 0 20
N02148           6.3353       1.4983     0 0 20
N00209           6.3353       1.9507     0 0 20
N02535           26.9625      11.8630    0 0 20
N01767           3.9302       2.6562     0 0 20
N02144           5.2936       1.0439     0 0 20
N00835           1.9541       6.4253     0 0 20
N00359           3.6280       2.3205     0 0 20
N01907           10.9491      4.6091     0 0 20
N01282           26.8213      15.3445    0 0 20
N02750           26.9325      19.4197    0 0 20
N00442           14.1561      9.0749     0 0 20
N00984           17.9165      6.5997     0 0 20
N01912           6.5695       3.1665     0 0 20
N02242           19.8759      2.1910     0 0 20
N00329           2.8914       2.2448     0 0 20
N01857           4.8863       2.4403     0 0 20
N01117           4.6438       4.7874     0 0 20
N01028           3.1185       2.5700     0 0 20
N01059           26.7981      4.7945     0 0 20
N01325           14.0479      5.5337     0 0 20
N00293           5.4259       2.8727     0 0 20
N00427           10.9200      4.2801     0 0 20
N01650           6.6106       2.6196     0 0 20
N00326           3.6967       1.6495     0 0 20
N01451           4.3752       1.9952     0 0 20
N01654           3.9302       2.3960     0 0 20
N01781           4.5295       1.9751     0 0 20
N00615           24.2117      4.2523     0 0 20
N00700           34.6872      13.7390    0 0 20
N02814           5.0736       1.4913     0 0 20
N00713           34.8927      0.5000     0 0 20
N00006           3.4304       4.8711     0 0 20
N02331           6.5313       8.9172     0 0 20
N02703           5.0153       3.2754     0 0 20
N00099           3.4446       5.1438     0 0 20
N00089           0.9940       3.1842     0 0 20
N00714           9.8885       16.3447    0 0 20
N01289           10.5696      1.8259     0 0 20
N01286           10.6404      11.8898    0 0 20
N00647           2.2375       1.7961     0 0 20
N02642           6.2594       2.7729     0 0 20
N00455           12.7217      2.8449     0 0 20
N01367           12.3449      2.5039     0 0 20
N00415           8.7926       4.1469     0 0 20
N00986           18.1043      0.5349     0 0 20
N02442           3.5061       1.7501     0 0 20
N00550           10.6496      6.6018     0 0 20
N00383           3.1091       3.4667     0 0 20
N02035           10.5922      5.9119     0 0 20
N01982           16.8357      4.3192     0 0 20
N02130           4.3740       2.6633     0 0 20
N01942           3.6371       2.2343     0 0 20
N00705           26.7762      12.5605    0 0 20
N02781           15.0478      4.0805     0 0 20
N00257           4.7342       2.6933     0 0 20
N00390           4.3890       5.4424     0 0 20
N01358           5.3908       5.8015     0 0 20
N01512           19.3432      1.9140     0 0 20
N00723           9.8437       14.2879    0 0 20
N01209           10.6820      3.8212     0 0 20
N00003           3.4628       5.1831     0 0 20
N02639           9.9019       3.4391     0 0 20
N01010           17.9378      5.3060     0 0 20
N01075           10.6379      4.8869     0 0 20
N02429           6.5159       3.6234     0 0 20
N00665           25.4416      23.5603    0 0 20
N01785           4.6670       2.1584     0 0 20
N00396           4.3211       2.8671     0 0 20
N00505           16.7620      0.6726     0 0 20
N00241           3.5125       2.8269     0 0 20
N01879           7.2224       10.7994    0 0 20
N02748           34.3338      7.9498     0 0 20
N02061           18.3166      3.9673     0 0 20
N01577           3.8526       2.2220     0 0 20
N00319           9.8714       14.1432    0 0 20
N00208           6.3193       1.6205     0 0 20
N00167           4.3361       1.2954     0 0 20
N01439           8.2225       1.4881     0 0 20
N00212           0.9764       3.9192     0 0 20
N00596           19.3781      4.0058     0 0 20
N02708           3.5919       2.2154     0 0 20
N00989           14.9070      3.6150     0 0 20
N00423           10.8700      3.9311     0 0 20
N01697           4.8078       4.4815     0 0 20
N00430           14.1790      12.9314    0 0 20
N00585           19.3479      3.7885     0 0 20
N02820           7.1082       8.1725     0 0 20
N00195           5.2342       2.1614     0 0 20
N01069           16.6360      1.3957     0 0 20
N01615           2.1976       1.8800     0 0 20
N02135           7.3293       5.3068     0 0 20
N01681           3.5936       2.8319     0 0 20
N02145           6.3170       0.9137     0 0 20
N01276           9.8626       14.1693    0 0 20
N01688           4.2677       2.1337     0 0 20
N01093           18.7320      5.2642     0 0 20
N00770           16.7026      0.9163     0 0 20
N01925           10.8779      6.1960     0 0 20
N02588           19.4151      3.6272     0 0 20
N00740           15.6688      3.2034     0 0 20
N00283           5.2646       1.8215     0 0 20
N00672           34.3493      6.6711     0 0 20
N02411           25.5061      24.1325    0 0 20
N02603           3.4861       1.7701     0 0 20
N01132           3.4031       1.9948     0 0 20
N01379           10.5971      2.0000     0 0 20
N01185           19.4251      3.6208     0 0 20
N02543           18.5280      5.9276     0 0 20
N02669           9.7341       1.9884     0 0 20
N00744           9.1945       2.0000     0 0 20
N02027           10.6014      7.8414     0 0 20
N02761           4.7406       1.8294     0 0 20
N00892           6.4303       4.1398     0 0 20
N01500           3.8916       2.4508     0 0 20
N01936           10.7020      13.6933    0 0 20
N01021           25.7152      15.2856    0 0 20
N00041           5.5540       2.8034     0 0 20
N00694           6.3877       4.0814     0 0 20
N00138           2.0405       3.3979     0 0 20
N01259           17.8971      2.7259     0 0 20
N01932           6.2157       2.1314     0 0 20
N00822           3.5092       2.8302     0 0 20
N01949           3.6731       3.3959     0 0 20
N01341           8.3783       5.0991     0 0 20
N00009           6.6223       3.0939     0 0 20
N00272           7.4809       2.9851     0 0 20
N02215           22.7624      10.9231    0 0 20
N02693           12.5837      12.6683    0 0 20
N01249           1.9263       2.1532     0 0 20
N01536           13.5225      6.8323     0 0 20
N02287           14.0926      9.2221     0 0 20
N00962           4.4962       0.9359     0 0 20
N00496           14.9455      1.9691     0 0 20
N01086           5.1052       0.9939     0 0 20
N01372           6.5722       9.4087     0 0 20
N01305           25.6476      5.3955     0 0 20
N01102           3.7563       0.7620     0 0 20
N01066           4.7070       2.1184     0 0 20
N00176           3.6093       1.4212     0 0 20
N01030           4.5445       3.2592     0 0 20
N01283           34.5050      12.1270    0 0 20
N01913           6.5659       2.3661     0 0 20
N01453           5.2755       2.4256     0 0 20
N01988           7.9166       6.7710     0 0 20
N02610           3.5311       2.3880     0 0 20
N02532           26.9825      13.8519    0 0 20
N02705           3.6056       1.9687     0 0 20
N01957           17.9471      2.9065     0 0 20
N01064           23.0716      23.4404    0 0 20
N01541           3.4687       2.9790     0 0 20
N01147           25.4837      12.6006    0 0 20
N01429           6.0051       4.4833     0 0 20
N00587           19.2557      1.6504     0 0 20
N02384           2.5658       1.7489     0 0 20
N01382           2.0100       4.2616     0 0 20
N01966           7.4449       2.3872     0 0 20
N02444           3.4585       2.0438     0 0 20
N02034           17.9654      3.3432     0 0 20
N02438           16.4423      2.0000     0 0 20
N02264           16.8264      3.7833     0 0 20
N02014           8.0272       2.5938     0 0 20
N00664           25.5123      12.2775    0 0 20
N02267           22.8501      0.5632     0 0 20
N01747           3.7855       4.8807     0 0 20
N01790           4.3618       2.1714     0 0 20
N00148           6.2448       2.8375     0 0 20
N01889           5.2458       4.0409     0 0 20
N00823           3.4371       3.0104     0 0 20
N00784           34.2565      6.4968     0 0 20
N00624           2.9133       7.7284     0 0 20
N01077           5.3707       6.2316     0 0 20
N00769           16.5921      3.3390     0 0 20
N00339           3.5375       2.9962     0 0 20
N01766           4.4716       1.6186     0 0 20
N01778           4.5048       2.0474     0 0 20
N02292           25.2673      4.3451     0 0 20
N00341           3.6056       2.3429     0 0 20
N00053           17.9195      3.1291     0 0 20
N01667           10.5708      1.8246     0 0 20
N00509           15.0119      2.7469     0 0 20
N02768           4.5799       1.9238     0 0 20
N01457           3.7908       2.2224     0 0 20
N02567           20.4785      0.5000     0 0 20
N00360           5.5014       3.2858     0 0 20
N01910           8.4066       5.0162     0 0 20
N01176           13.3942      4.6912     0 0 20
N01729           4.5588       2.0000     0 0 20
N00834           2.0380       2.1984     0 0 20
N01703           4.6515       1.8510     0 0 20
N00086           2.3330       2.3080     0 0 20
N02596           13.5025      7.1135     0 0 20
N00661           3.6472       1.5224     0 0 20
N00525           16.8373      4.4701     0 0 20
N01345           3.8221       1.2084     0 0 20
N00309           5.2722       1.7869     0 0 20
N01819           8.8126       3.5834     0 0 20
N01754           4.4799       1.6103     0 0 20
N01427           5.9452       3.2006     0 0 20
N01588           26.7904      4.5663     0 0 20
N01643           2.8501       2.0107     0 0 20
N00851           18.1184      0.5000     0 0 20
N02569           20.3325      2.1638     0 0 20
N02211           4.9919       2.0366     0 0 20
N00965           4.5460       4.1851     0 0 20
N00538           10.8452      4.5625     0 0 20
N00964           3.7433       1.3833     0 0 20
N01834           5.8935       5.6732     0 0 20
N01003           20.3492      8.9340     0 0 20
N00135           1.9134       4.3882     0 0 20
N00012           7.4405       2.2157     0 0 20
N02666           6.2768       4.4955     0 0 20
N01873           3.2773       2.3303     0 0 20
N01884           4.7182       1.8518     0 0 20
N01716           4.6237       2.6450     0 0 20
N01902           10.9526      4.6715     0 0 20
N01805           8.0745       2.3190     0 0 20
N00606           26.7317      8.0003     0 0 20
N02426           12.1907      3.1345     0 0 20
N01687           4.3477       5.0627     0 0 20
N01779           4.5148       2.0744     0 0 20
N00495           15.0078      2.3040     0 0 20
N01775           4.7677       1.7362     0 0 20
N01776           4.4848       2.0000     0 0 20
N00071           4.3455       0.9007     0 0 20
N02171           9.3161       6.5350     0 0 20
N01522           2.8474       9.1850     0 0 20
N02524           25.6400      0.5000     0 0 20
N01112           5.5871       2.4403     0 0 20
N00458           13.9735      10.4756    0 0 20
N00552           20.3636      8.1887     0 0 20
N00849           14.9894      3.2846     0 0 20
N02632           14.1894      4.7228     0 0 20
N00836           1.9600       5.1433     0 0 20
N01068           16.5340      2.0000     0 0 20
N00386           2.9423       3.0642     0 0 20
N02298           20.3125      2.1603     0 0 20
N01968           7.3320       2.8066     0 0 20
N02435           3.6807       10.8074    0 0 20
N01565           19.3407      4.5165     0 0 20
N00568           14.0567      11.4577    0 0 20
N01696           5.2708       2.4607     0 0 20
N01602           27.0650      22.7398    0 0 20
N00180           4.3861       0.8779     0 0 20
N01739           4.4816       1.6086     0 0 20
N02590           19.3951      3.5397     0 0 20
N01277           27.0672      1.5105     0 0 20
N00035           17.8665      4.9704     0 0 20
N02506           25.5571      22.0189    0 0 20
N00125           2.8166       1.9043     0 0 20
N01807           7.9445       2.3941     0 0 20
N00932           26.8523      15.0097    0 0 20
N01253           10.9159      4.0190     0 0 20
N01391           0.9347       3.4842     0 0 20
N01050           26.8864      3.0618     0 0 20
N00545           10.7652      4.1861     0 0 20
N02044           10.7202      8.0804     0 0 20
N02795           10.4655      3.8776     0 0 20
N01631           2.0676       2.1790     0 0 20
N01579           5.2778       2.4594     0 0 20
N01637           2.0852       1.7869     0 0 20
N00592           16.7309      0.5000     0 0 20
N00640           2.1912       2.5240     0 0 20

[OUTFALLS]
OUT01            0.9024       NORMAL  NO
OUT02            3.4115       NORMAL  NO
OUT03            7.6494       NORMAL  NO
OUT04            4.2377       NORMAL  NO
OUT05            11.4009      NORMAL  NO
OUT06            13.3121      NORMAL  NO
OUT07            5.6704       NORMAL  NO
OUT08            34.0680      NORMAL  NO
OUT09            2.4477       NORMAL  NO
OUT10            2.5597       NORMAL  NO
OUT11            9.1845       NORMAL  NO
OUT12            25.1773      NORMAL  NO
OUT13            22.7085      NORMAL  NO
OUT14            4.2830       NORMAL  NO
OUT15            8.1738       NORMAL  NO
OUT16            19.7663      NORMAL  NO
OUT17            23.9800      NORMAL  NO
OUT18            2.9644       NORMAL  NO
OUT19            3.4680       NORMAL  NO
OUT20            9.8428       NORMAL  NO
OUT21            20.2025      NORMAL  NO
OUT22            3.4911       NORMAL  NO
OUT23            7.2687       NORMAL  NO
OUT24            10.5725      NORMAL  NO
OUT25            12.1967      NORMAL  NO
OUT26            6.7207       NORMAL  NO
OUT27            18.0216      NORMAL  NO
OUT28            3.2357       NORMAL  NO
OUT29            3.4771       NORMAL  NO
OUT30            4.6361       NORMAL  NO
OUT31            7.2620       NORMAL  NO
OUT32            6.4203       NORMAL  NO
OUT33            14.7498      NORMAL  NO
OUT34            16.5421      NORMAL  NO
OUT35            17.8871      NORMAL  NO
OUT36            3.5487       NORMAL  NO
OUT37            5.0836       NORMAL  NO
OUT38            8.0303       NORMAL  NO
OUT39            12.5101      NORMAL  NO
OUT40            9.5295       NORMAL  NO
OUT41            20.1469      NORMAL  NO
OUT42            25.4730      NORMAL  NO
OUT43            34.4750      NORMAL  NO
OUT44            1.8621       NORMAL  NO
OUT45            2.7667       NORMAL  NO
OUT46            3.2283       NORMAL  NO
OUT47            8.4605       NORMAL  NO
OUT48            13.8749      NORMAL  NO
OUT49            14.0123      NORMAL  NO
OUT50            10.6304      NORMAL  NO
OUT51            20.2802      NORMAL  NO
OUT52            26.6852      NORMAL  NO
OUT53            2.8085       NORMAL  NO
OUT54            3.2762       NORMAL  NO
OUT55            4.4748       NORMAL  NO
OUT56            4.8131       NORMAL  NO
OUT57            4.2761       NORMAL  NO
OUT58            7.7641       NORMAL  NO
OUT59            9.6241       NORMAL  NO
OUT60            7.0982       NORMAL  NO
OUT61            18.4274      NORMAL  NO
OUT62            2.2270       NORMAL  NO
OUT63            10.3855      NORMAL  NO
OUT64            19.1603      NORMAL  NO
OUT65            24.6897      NORMAL  NO
OUT66            22.7524      NORMAL  NO
OUT67            26.7217      NORMAL  NO
OUT68            2.9266       NORMAL  NO
OUT69            4.1312       NORMAL  NO
OUT70            10.3638      NORMAL  NO
OUT71            16.4323      NORMAL  NO
OUT72            16.5240      NORMAL  NO
OUT73            4.8716       NORMAL  NO
OUT74            25.4737      NORMAL  NO
OUT75            3.5834       NORMAL  NO
OUT76            3.6667       NORMAL  NO
OUT77            4.3098       NORMAL  NO
OUT78            4.4748       NORMAL  NO
OUT79            5.0308       NORMAL  NO
OUT80            5.2155       NORMAL  NO
OUT81            4.1163       NORMAL  NO
OUT82            6.1901       NORMAL  NO
OUT83            6.1645       NORMAL  NO
OUT84            6.5213       NORMAL  NO
OUT85            7.0787       NORMAL  NO
OUT86            10.5871      NORMAL  NO
OUT87            11.4009      NORMAL  NO
OUT88            11.9410      NORMAL  NO
OUT89            12.2901      NORMAL  NO
OUT90            13.7371      NORMAL  NO
OUT91            15.5023      NORMAL  NO
OUT92            15.1702      NORMAL  NO
OUT93            17.7765      NORMAL  NO
OUT94            20.0790      NORMAL  NO
OUT95            1.8793       NORMAL  NO
OUT96            2.3337       NORMAL  NO

[CONDUITS]
G00001           N00001           N00013           82.462     0.0130   0 0 0 0
G00002           N00002           N00063           89.443     0.0130   0 0 0 0
G00003           N00003           N00092           82.462     0.0130   0 0 0 0
G00004           N00004           N00113           40.000     0.0130   0 0 0 0
G00005           N00005           N00183           44.721     0.0130   0 0 0 0
G00006           N00006           N00005           82.462     0.0130   0 0 0 0
G00007           N00007           N01374           100.000    0.0130   0 0 0 0
G00008           N00008           N00725           101.980    0.0130   0 0 0 0
G00009           N00009           N00008           80.000     0.0130   0 0 0 0
G00010           N00010           N01514           28.284     0.0130   0 0 0 0
G00011           N00011           N00067           100.000    0.0130   0 0 0 0
G00012           N00012           N01516           60.000     0.0130   0 0 0 0
G00013           N00014           N00393           100.000    0.0130   0 0 0 0
G00014           N00015           N00070           120.000    0.0130   0 0 0 0
G00015           N00016           N01744           40.000     0.0130   0 0 0 0
G00016           N00017           N00394           40.000     0.0130   0 0 0 0
G00017           N00018           N01116           184.391    0.0130   0 0 0 0
G00018           N00019           N00305           100.000    0.0130   0 0 0 0
G00019           N00020           N00022           164.924    0.0130   0 0 0 0
G00020           N00021           N01116           80.000     0.0130   0 0 0 0
G00021           N00022           N01034           82.462     0.0130   0 0 0 0
G00022           N00023           N02308           72.111     0.0130   0 0 0 0
G00023           N00024           N00863           220.907    0.0130   0 0 0 0
G00024           N00025           N00985           40.000     0.0130   0 0 0 0
G00025           N00026           N01579           20.000     0.0130   0 0 0 0
G00026           N00027           N00026           161.245    0.0130   0 0 0 0
G00027           N00031           N00434           447.214    0.0130   0 0 0 0
G00028           N00032           N02284           80.000     0.0130   0 0 0 0
G00029           N00033           N00034           80.000     0.0130   0 0 0 0
G00030           N00034           N02278           100.000    0.0130   0 0 0 0
G00031           N00035           N00036           160.000    0.0130   0 0 0 0
G00032           N00040           N01115           82.462     0.0130   0 0 0 0
G00033           N00041           N00040           161.245    0.0130   0 0 0 0
G00034           N00053           N01259           44.721     0.0130   0 0 0 0
G00035           N00054           N02022           100.000    0.0130   0 0 0 0
G00036           N00055           N00452           20.000     0.0130   0 0 0 0
G00037           N00056           N01209           121.655    0.0130   0 0 0 0
G00038           N00057           N02470           80.000     0.0130   0 0 0 0
G00039           N00063           N01645           89.443     0.0130   0 0 0 0
G00040           N00064           N00013           28.284     0.0130   0 0 0 0
G00041           N00065           N01647           28.284     0.0130   0 0 0 0
G00042           N00066           N00067           101.980    0.0130   0 0 0 0
G00043           N00067           N01514           44.721     0.0130   0 0 0 0
G00044           N00068           N01651           40.000     0.0130   0 0 0 0
G00045           N00069           N00068           100.000    0.0130   0 0 0 0
G00046           N00070           N01300           82.462     0.0130   0 0 0 0
G00047           N00071           N01497           44.721     0.0130   0 0 0 0
G00048           N00074           N02781           44.721     0.0130   0 0 0 0
G00049           N00075           N02406           82.462     0.0130   0 0 0 0
G00050           N00076           N02546           100.000    0.0130   0 0 0 0
G00051           N00083           N00084           184.391    0.0130   0 0 0 0
G00052           N00084           N00872           72.111     0.0130   0 0 0 0
G00053           N00085           N00086           44.721     0.0130   0 0 0 0
G00054           N00086           N00870           72.111     0.0130   0 0 0 0
G00055           N00087           N00088           260.768    0.0130   0 0 0 0
G00056           N00088           N01391           80.000     0.0130   0 0 0 0
G00057           N00089           N00237           100.000    0.0130   0 0 0 0
G00058           N00090           N00093           82.462     0.0130   0 0 0 0
G00059           N00091           N01393           63.246     0.0130   0 0 0 0
G00060           N00093           N00091           60.000     0.0130   0 0 0 0
G00061           N00094           N00097           40.000     0.0130   0 0 0 0
G00062           N00095           N00092           40.000     0.0130   0 0 0 0
G00063           N00096           N01395           63.246     0.0130   0 0 0 0
G00064           N00097           N01396           100.000    0.0130   0 0 0 0
G00065           N00098           N00005           100.000    0.0130   0 0 0 0
G00066           N00099           N00006           28.284     0.0130   0 0 0 0
G00067           N00100           N00185           107.703    0.0130   0 0 0 0
G00068           N00101           N00124           89.443     0.0130   0 0 0 0
G00069           N00102           N00183           72.111     0.0130   0 0 0 0
G00070           N00103           N00122           100.000    0.0130   0 0 0 0
G00071           N00104           N00177           82.462     0.0130   0 0 0 0
G00072           N00105           N00113           89.443     0.0130   0 0 0 0
G00073           N00106           N00105           44.721     0.0130   0 0 0 0
G00074           N00107           N01026           82.462     0.0130   0 0 0 0
G00075           N00108           N00122           145.602    0.0130   0 0 0 0
G00076           N00109           N00100           82.462     0.0130   0 0 0 0
G00077           N00110           N01945           72.111     0.0130   0 0 0 0
G00078           N00111           N00153           72.111     0.0130   0 0 0 0
G00079           N00112           N00151           100.000    0.0130   0 0 0 0
G00080           N00113           N00100           44.721     0.0130   0 0 0 0
G00081           N00114           N00115           107.703    0.0130   0 0 0 0
G00082           N00115           N01464           82.462     0.0130   0 0 0 0
G00083           N00116           N01464           100.000    0.0130   0 0 0 0
G00084           N00117           N00116           116.619    0.0130   0 0 0 0
G00085           N00118           N00117           134.164    0.0130   0 0 0 0
G00086           N00122           N00123           141.421    0.0130   0 0 0 0
G00087           N00123           N00184           72.111     0.0130   0 0 0 0
G00088           N00124           N00184           89.443     0.0130   0 0 0 0
G00089           N00125           N01388           44.721     0.0130   0 0 0 0
G00090           N00126           N00127           172.047    0.0130   0 0 0 0
G00091           N00127           N02178           82.462     0.0130   0 0 0 0
G00092           N00128           N02181           89.443     0.0130   0 0 0 0
G00093           N00130           N02191           100.000    0.0130   0 0 0 0
G00094           N00131           N02191           44.721     0.0130   0 0 0 0
G00095           N00132           N00133           89.443     0.0130   0 0 0 0
G00096           N00133           N00134           107.703    0.0130   0 0 0 0
G00097           N00134           N00135           107.703    0.0130   0 0 0 0
G00098           N00135           N01641           82.462     0.0130   0 0 0 0
G00099           N00136           N01641           63.246     0.0130   0 0 0 0
G00100           N00137           N00136           126.491    0.0130   0 0 0 0
G00101           N00138           N00644           84.853     0.0130   0 0 0 0
G00102           N00139           N00138           141.421    0.0130   0 0 0 0
G00103           N00140           N00139           140.000    0.0130   0 0 0 0
G00104           N00141           N00140           100.000    0.0130   0 0 0 0
G00105           N00142           N00154           44.721     0.0130   0 0 0 0
G00106           N00143           N01460           63.246     0.0130   0 0 0 0
G00107           N00147           N00117           28.284     0.0130   0 0 0 0
G00108           N00148           N01464           89.443     0.0130   0 0 0 0
G00109           N00149           N00150           101.980    0.0130   0 0 0 0
G00110           N00150           N00100           40.000     0.0130   0 0 0 0
G00111           N00151           N00100           72.111     0.0130   0 0 0 0
G00112           N00152           N00151           89.443     0.0130   0 0 0 0
G00113           N00153           N00152           116.619    0.0130   0 0 0 0
G00114           N00154           N01465           72.111     0.0130   0 0 0 0
G00115           N00155           N02697           63.246     0.0130   0 0 0 0
G00116           N00156           N00117           82.462     0.0130   0 0 0 0
G00117           N00157           N00166           89.443     0.0130   0 0 0 0
G00118           N00158           N01462           82.462     0.0130   0 0 0 0
G00119           N00159           N02056           63.246     0.0130   0 0 0 0
G00120           N00160           N00103           126.491    0.0130   0 0 0 0
G00121           N00161           N00124           100.000    0.0130   0 0 0 0
G00122           N00162           N00163           161.245    0.0130   0 0 0 0
G00123           N00163           N01462           28.284     0.0130   0 0 0 0
G00124           N00164           N00166           60.000     0.0130   0 0 0 0
G00125           N00165           N01406           56.569     0.0130   0 0 0 0
G00126           N00167           N01334           100.000    0.0130   0 0 0 0
G00127           N00168           N00167           172.047    0.0130   0 0 0 0
G00128           N00169           N00168           284.253    0.0130   0 0 0 0
G00129           N00170           N00171           84.853     0.0130   0 0 0 0
G00130           N00171           N00191           63.246     0.0130   0 0 0 0
G00131           N00172           N02623           161.245    0.0130   0 0 0 0
G00132           N00173           N01952           72.111     0.0130   0 0 0 0
G00133           N00174           N00223           80.000     0.0130   0 0 0 0
G00134           N00175           N01952           20.000     0.0130   0 0 0 0
G00135           N00176           N00177           247.386    0.0130   0 0 0 0
G00136           N00177           N00113           89.443     0.0130   0 0 0 0
G00137           N00178           N00179           121.655    0.0130   0 0 0 0
G00138           N00179           N00180           107.703    0.0130   0 0 0 0
G00139           N00180           N00167           100.000    0.0130   0 0 0 0
G00140           N00181           N00180           169.706    0.0130   0 0 0 0
G00141           N00182           N00178           100.000    0.0130   0 0 0 0
G00142           N00183           N00184           161.245    0.0130   0 0 0 0
G00143           N00185           N00123           84.853     0.0130   0 0 0 0
G00144           N00186           N00792           82.462     0.0130   0 0 0 0
G00145           N00187           N00964           60.000     0.0130   0 0 0 0
G00146           N00188           N00189           156.205    0.0130   0 0 0 0
G00147           N00189           N00190           172.047    0.0130   0 0 0 0
G00148           N00190           N00167           63.246     0.0130   0 0 0 0
G00149           N00191           N02622           100.000    0.0130   0 0 0 0
G00150           N00192           N00175           100.000    0.0130   0 0 0 0
G00151           N00193           N00178           63.246     0.0130   0 0 0 0
G00152           N00194           N00182           80.000     0.0130   0 0 0 0
G00153           N00195           N00224           100.000    0.0130   0 0 0 0
G00154           N00196           N00197           216.333    0.0130   0 0 0 0
G00155           N00197           N01478           72.111     0.0130   0 0 0 0
G00156           N00198           N01655           100.000    0.0130   0 0 0 0
G00157           N00199           N01655           44.721     0.0130   0 0 0 0
G00158           N00200           N02719           100.000    0.0130   0 0 0 0
G00159           N00201           N00210           89.443     0.0130   0 0 0 0
G00160           N00202           N02719           72.111     0.0130   0 0 0 0
G00161           N00203           N02654           72.111     0.0130   0 0 0 0
G00162           N00204           N00324           63.246     0.0130   0 0 0 0
G00163           N00205           N00206           421.900    0.0130   0 0 0 0
G00164           N00206           N01931           84.853     0.0130   0 0 0 0
G00165           N00208           N01657           44.721     0.0130   0 0 0 0
G00166           N00209           N01931           80.000     0.0130   0 0 0 0
G00167           N00210           N00202           89.443     0.0130   0 0 0 0
G00168           N00212           N00211           128.062    0.0130   0 0 0 0
G00169           N00213           N00212           161.245    0.0130   0 0 0 0
G00170           N00214           N00215           240.000    0.0130   0 0 0 0
G00171           N00215           N00216           100.000    0.0130   0 0 0 0
G00172           N00216           N00217           220.907    0.0130   0 0 0 0
G00173           N00217           N01542           20.000     0.0130   0 0 0 0
G00174           N00218           N00227           28.284     0.0130   0 0 0 0
G00175           N00219           N01540           89.443     0.0130   0 0 0 0
G00176           N00220           N01883           82.462     0.0130   0 0 0 0
G00177           N00221           N00194           40.000     0.0130   0 0 0 0
G00178           N00222           N01928           60.000     0.0130   0 0 0 0
G00179           N00223           N00169           44.721     0.0130   0 0 0 0
G00180           N00224           N00813           60.000     0.0130   0 0 0 0
G00181           N00225           N02627           44.721     0.0130   0 0 0 0
G00182           N00226           N01878           82.462     0.0130   0 0 0 0
G00183           N00227           N00249           100.000    0.0130   0 0 0 0
G00184           N00228           N00251           89.443     0.0130   0 0 0 0
G00185           N00229           N00256           63.246     0.0130   0 0 0 0
G00186           N00232           N00140           160.000    0.0130   0 0 0 0
G00187           N00233           N00234           101.980    0.0130   0 0 0 0
G00188           N00234           N00235           164.924    0.0130   0 0 0 0
G00189           N00235           N00236           121.655    0.0130   0 0 0 0
G00190           N00236           N00237           215.407    0.0130   0 0 0 0
G00191           N00237           N00211           63.246     0.0130   0 0 0 0
G00192           N00238           N01083           60.000     0.0130   0 0 0 0
G00193           N00239           N00238           178.885    0.0130   0 0 0 0
G00194           N00240           N00246           56.569     0.0130   0 0 0 0
G00195           N00241           N00244           100.000    0.0130   0 0 0 0
G00196           N00242           N00821           44.721     0.0130   0 0 0 0
G00197           N00243           N00219           89.443     0.0130   0 0 0 0
G00198           N00244           N01540           89.443     0.0130   0 0 0 0
G00199           N00245           N00249           84.853     0.0130   0 0 0 0
G00200           N00246           N00250           140.000    0.0130   0 0 0 0
G00201           N00247           N00227           89.443     0.0130   0 0 0 0
G00202           N00248           N00246           60.000     0.0130   0 0 0 0
G00203           N00249           N00238           44.721     0.0130   0 0 0 0
G00204           N00250           N01083           120.000    0.0130   0 0 0 0
G00205           N00251           N00239           72.111     0.0130   0 0 0 0
G00206           N00252           N00246           28.284     0.0130   0 0 0 0
G00207           N00253           N02494           72.111     0.0130   0 0 0 0
G00208           N00254           N00268           220.907    0.0130   0 0 0 0
G00209           N00255           N00256           89.443     0.0130   0 0 0 0
G00210           N00256           N00675           89.443     0.0130   0 0 0 0
G00211           N00257           N00258           164.924    0.0130   0 0 0 0
G00212           N00258           N00674           28.284     0.0130   0 0 0 0
G00213           N00259           N00229           100.000    0.0130   0 0 0 0
G00214           N00260           N00254           89.443     0.0130   0 0 0 0
G00215           N00261           N00262           120.000    0.0130   0 0 0 0
G00216           N00262           N00674           44.721     0.0130   0 0 0 0
G00217           N00263           N00260           28.284     0.0130   0 0 0 0
G00218           N00264           N00259           56.569     0.0130   0 0 0 0
G00219           N00265           N00267           160.000    0.0130   0 0 0 0
G00220           N00266           N00257           82.462     0.0130   0 0 0 0
G00221           N00267           N00268           220.000    0.0130   0 0 0 0
G00222           N00268           N00674           40.000     0.0130   0 0 0 0
G00223           N00269           N00675           82.462     0.0130   0 0 0 0
G00224           N00270           N01493           44.721     0.0130   0 0 0 0
G00225           N00271           N01296           101.980    0.0130   0 0 0 0
G00226           N00272           N01966           72.111     0.0130   0 0 0 0
G00227           N00273           N00276           63.246     0.0130   0 0 0 0
G00228           N00274           N00831           44.721     0.0130   0 0 0 0
G00229           N00275           N01039           72.111     0.0130   0 0 0 0
G00230           N00276           N00278           247.386    0.0130   0 0 0 0
G00231           N00277           N00276           56.569     0.0130   0 0 0 0
G00232           N00278           N01119           82.462     0.0130   0 0 0 0
G00233           N00279           N01119           60.000     0.0130   0 0 0 0
G00234           N00280           N00279           161.245    0.0130   0 0 0 0
G00235           N00281           N00280           141.421    0.0130   0 0 0 0
G00236           N00282           N01888           84.853     0.0130   0 0 0 0
G00237           N00283           N00281           84.853     0.0130   0 0 0 0
G00238           N00284           N00285           184.391    0.0130   0 0 0 0
G00239           N00285           N01705           100.000    0.0130   0 0 0 0
G00240           N00286           N01450           82.462     0.0130   0 0 0 0
G00241           N00287           N00286           184.391    0.0130   0 0 0 0
G00242           N00288           N00286           220.000    0.0130   0 0 0 0
G00243           N00289           N01032           120.000    0.0130   0 0 0 0
G00244           N00290           N01711           100.000    0.0130   0 0 0 0
G00245           N00291           N00303           63.246     0.0130   0 0 0 0
G00246           N00292           N00291           200.000    0.0130   0 0 0 0
G00247           N00293           N00294           89.443     0.0130   0 0 0 0
G00248           N00294           N00291           63.246     0.0130   0 0 0 0
G00249           N00295           N01439           100.000    0.0130   0 0 0 0
G00250           N00296           N00290           63.246     0.0130   0 0 0 0
G00251           N00297           N01434           56.569     0.0130   0 0 0 0
G00252           N00298           N00299           160.000    0.0130   0 0 0 0
G00253           N00299           N00300           180.000    0.0130   0 0 0 0
G00254           N00300           N01791           89.443     0.0130   0 0 0 0
G00255           N00301           N00302           89.443     0.0130   0 0 0 0
G00256           N00302           N00299           72.111     0.0130   0 0 0 0
G00257           N00303           N01453           84.853     0.0130   0 0 0 0
G00258           N00304           N00299           60.000     0.0130   0 0 0 0
G00259           N00305           N01115           40.000     0.0130   0 0 0 0
G00260           N00306           N01358           89.443     0.0130   0 0 0 0
G00261           N00307           N00281           89.443     0.0130   0 0 0 0
G00262           N00308           N01433           89.443     0.0130   0 0 0 0
G00263           N00309           N00281           100.000    0.0130   0 0 0 0
G00264           N00310           N00300           100.000    0.0130   0 0 0 0
G00265           N00311           N00308           60.000     0.0130   0 0 0 0
G00266           N00312           N00706           89.443     0.0130   0 0 0 0
G00267           N00313           N00700           84.853     0.0130   0 0 0 0
G00268           N00314           N01335           44.721     0.0130   0 0 0 0
G00269           N00315           N00713           63.246     0.0130   0 0 0 0
G00270           N00316           N02104           80.000     0.0130   0 0 0 0
G00271           N00317           N02097           63.246     0.0130   0 0 0 0
G00272           N00318           N00714           84.853     0.0130   0 0 0 0
G00273           N00319           N00720           72.111     0.0130   0 0 0 0
G00274           N00320           N00703           28.284     0.0130   0 0 0 0
G00275           N00321           N00704           100.000    0.0130   0 0 0 0
G00276           N00322           N00321           184.391    0.0130   0 0 0 0
G00277           N00323           N00324           145.602    0.0130   0 0 0 0
G00278           N00324           N01275           60.000     0.0130   0 0 0 0
G00279           N00325           N01747           72.111     0.0130   0 0 0 0
G00280           N00326           N01299           40.000     0.0130   0 0 0 0
G00281           N00327           N00326           89.443     0.0130   0 0 0 0
G00282           N00328           N00329           164.924    0.0130   0 0 0 0
G00283           N00329           N01643           82.462     0.0130   0 0 0 0
G00284           N00330           N02802           28.284     0.0130   0 0 0 0
G00285           N00331           N01457           44.721     0.0130   0 0 0 0
G00286           N00332           N02753           44.721     0.0130   0 0 0 0
G00287           N00333           N00337           141.421    0.0130   0 0 0 0
G00288           N00334           N02715           100.000    0.0130   0 0 0 0
G00289           N00335           N02715           84.853     0.0130   0 0 0 0
G00290           N00336           N02814           44.721     0.0130   0 0 0 0
G00291           N00337           N02717           40.000     0.0130   0 0 0 0
G00292           N00338           N02753           40.000     0.0130   0 0 0 0
G00293           N00339           N00340           145.602    0.0130   0 0 0 0
G00294           N00340           N00347           60.000     0.0130   0 0 0 0
G00295           N00341           N00353           161.245    0.0130   0 0 0 0
G00296           N00342           N00362           170.880    0.0130   0 0 0 0
G00297           N00343           N00344           152.315    0.0130   0 0 0 0
G00298           N00344           N00027           63.246     0.0130   0 0 0 0
G00299           N00345           N02620           56.569     0.0130   0 0 0 0
G00300           N00346           N00345           180.000    0.0130   0 0 0 0
G00301           N00347           N01127           63.246     0.0130   0 0 0 0
G00302           N00348           N00347           160.000    0.0130   0 0 0 0
G00303           N00349           N00348           145.602    0.0130   0 0 0 0
G00304           N00350           N00355           44.721     0.0130   0 0 0 0
G00305           N00351           N00349           72.111     0.0130   0 0 0 0
G00306           N00352           N00347           152.315    0.0130   0 0 0 0
G00307           N00353           N00352           28.284     0.0130   0 0 0 0
G00308           N00354           N00353           144.222    0.0130   0 0 0 0
G00309           N00355           N00362           164.924    0.0130   0 0 0 0
G00310           N00356           N02714           63.246     0.0130   0 0 0 0
G00311           N00357           N00364           82.462     0.0130   0 0 0 0
G00312           N00358           N00330           100.000    0.0130   0 0 0 0
G00313           N00359           N00341           44.721     0.0130   0 0 0 0
G00314           N00360           N00355           44.721     0.0130   0 0 0 0
G00315           N00361           N00349           44.721     0.0130   0 0 0 0
G00316           N00362           N00979           40.000     0.0130   0 0 0 0
G00317           N00363           N00364           126.491    0.0130   0 0 0 0
G00318           N00364           N00348           72.111     0.0130   0 0 0 0
G00319           N00365           N01520           82.462     0.0130   0 0 0 0
G00320           N00366           N00343           44.721     0.0130   0 0 0 0
G00321           N00367           N01012           60.000     0.0130   0 0 0 0
G00322           N00368           N02541           82.462     0.0130   0 0 0 0
G00323           N00369           N00832           63.246     0.0130   0 0 0 0
G00324           N00370           N00835           100.000    0.0130   0 0 0 0
G00325           N00371           N01392           100.000    0.0130   0 0 0 0
G00326           N00372           N00371           84.853     0.0130   0 0 0 0
G00327           N00373           N00652           100.000    0.0130   0 0 0 0
G00328           N00374           N00212           28.284     0.0130   0 0 0 0
G00329           N00375           N00387           28.284     0.0130   0 0 0 0
G00330           N00376           N01497           72.111     0.0130   0 0 0 0
G00331           N00377           N00386           161.245    0.0130   0 0 0 0
G00332           N00378           N02540           89.443     0.0130   0 0 0 0
G00333           N00379           N00368           100.000    0.0130   0 0 0 0
G00334           N00380           N01082           100.000    0.0130   0 0 0 0
G00335           N00381           N00380           161.245    0.0130   0 0 0 0
G00336           N00382           N00380           300.000    0.0130   0 0 0 0
G00337           N00383           N00382           181.108    0.0130   0 0 0 0
G00338           N00384           N00399           84.853     0.0130   0 0 0 0
G00339           N00385           N00014           44.721     0.0130   0 0 0 0
G00340           N00386           N00387           60.000     0.0130   0 0 0 0
G00341           N00387           N01609           82.462     0.0130   0 0 0 0
G00342           N00388           N00376           80.000     0.0130   0 0 0 0
G00343           N00389           N01125           56.569     0.0130   0 0 0 0
G00344           N00390           N00397           28.284     0.0130   0 0 0 0
G00345           N00391           N00390           116.619    0.0130   0 0 0 0
G00346           N00393           N00392           300.000    0.0130   0 0 0 0
G00347           N00394           N00393           72.111     0.0130   0 0 0 0
G00348           N00395           N00014           44.721     0.0130   0 0 0 0
G00349           N00396           N00393           89.443     0.0130   0 0 0 0
G00350           N00397           N00396           107.703    0.0130   0 0 0 0
G00351           N00398           N00393           100.000    0.0130   0 0 0 0
G00352           N00399           N00386           44.721     0.0130   0 0 0 0
G00353           N00400           N01618           63.246     0.0130   0 0 0 0
G00354           N00401           N00400           40.000     0.0130   0 0 0 0
G00355           N00402           N00401           181.108    0.0130   0 0 0 0
G00356           N00403           N02618           72.111     0.0130   0 0 0 0
G00357           N00404           N00400           60.000     0.0130   0 0 0 0
G00358           N00405           N00406           164.924    0.0130   0 0 0 0
G00359           N00406           N00904           82.462     0.0130   0 0 0 0
G00360           N00408           N01329           63.246     0.0130   0 0 0 0
G00361           N00409           N00408           113.137    0.0130   0 0 0 0
G00362           N00410           N01329           60.000     0.0130   0 0 0 0
G00363           N00411           N00410           140.000    0.0130   0 0 0 0
G00364           N00412           N01896           28.284     0.0130   0 0 0 0
G00365           N00413           N01420           63.246     0.0130   0 0 0 0
G00366           N00414           N01818           60.000     0.0130   0 0 0 0
G00367           N00415           N02463           82.462     0.0130   0 0 0 0
G00368           N00416           N01420           63.246     0.0130   0 0 0 0
G00369           N00422           N00871           72.111     0.0130   0 0 0 0
G00370           N00423           N00546           44.721     0.0130   0 0 0 0
G00371           N00424           N00451           63.246     0.0130   0 0 0 0
G00372           N00425           N00549           100.000    0.0130   0 0 0 0
G00373           N00426           N00538           44.721     0.0130   0 0 0 0
G00374           N00427           N00423           100.000    0.0130   0 0 0 0
G00375           N00428           N00542           82.462     0.0130   0 0 0 0
G00376           N00429           N00431           220.000    0.0130   0 0 0 0
G00377           N00430           N00436           63.246     0.0130   0 0 0 0
G00378           N00431           N00446           161.245    0.0130   0 0 0 0
G00379           N00432           N00409           28.284     0.0130   0 0 0 0
G00380           N00433           N00568           80.000     0.0130   0 0 0 0
G00381           N00434           N00571           28.284     0.0130   0 0 0 0
G00382           N00435           N00664           28.284     0.0130   0 0 0 0
G00383           N00436           N00431           172.047    0.0130   0 0 0 0
G00384           N00437           N02415           89.443     0.0130   0 0 0 0
G00385           N00438           N02109           140.000    0.0130   0 0 0 0
G00386           N00439           N02414           72.111     0.0130   0 0 0 0
G00387           N00440           N02415           40.000     0.0130   0 0 0 0
G00388           N00441           N00431           28.284     0.0130   0 0 0 0
G00389           N00442           N00441           161.245    0.0130   0 0 0 0
G00390           N00443           N00438           44.721     0.0130   0 0 0 0
G00391           N00444           N00441           160.000    0.0130   0 0 0 0
G00392           N00445           N01143           82.462     0.0130   0 0 0 0
G00393           N00446           N00572           28.284     0.0130   0 0 0 0
G00394           N00449           N00425           28.284     0.0130   0 0 0 0
G00395           N00450           N00451           82.462     0.0130   0 0 0 0
G00396           N00451           N00452           82.462     0.0130   0 0 0 0
G00397           N00452           N00545           100.000    0.0130   0 0 0 0
G00398           N00453           N00546           56.569     0.0130   0 0 0 0
G00399           N00454           N00453           82.462     0.0130   0 0 0 0
G00400           N00455           N00428           100.000    0.0130   0 0 0 0
G00401           N00456           N00857           100.000    0.0130   0 0 0 0
G00402           N00457           N02502           72.111     0.0130   0 0 0 0
G00403           N00458           N00457           280.713    0.0130   0 0 0 0
G00404           N00480           N00479           189.737    0.0130   0 0 0 0
G00405           N00481           N00482           101.980    0.0130   0 0 0 0
G00406           N00482           N00480           84.853     0.0130   0 0 0 0
G00407           N00483           N00482           161.245    0.0130   0 0 0 0
G00408           N00484           N00501           84.853     0.0130   0 0 0 0
G00409           N00485           N02024           72.111     0.0130   0 0 0 0
G00410           N00486           N00484           60.000     0.0130   0 0 0 0
G00411           N00487           N02024           89.443     0.0130   0 0 0 0
G00412           N00488           N00489           82.462     0.0130   0 0 0 0
G00413           N00489           N02022           89.443     0.0130   0 0 0 0
G00414           N00490           N00507           72.111     0.0130   0 0 0 0
G00415           N00491           N00492           84.853     0.0130   0 0 0 0
G00416           N00492           N00510           89.443     0.0130   0 0 0 0
G00417           N00493           N01069           40.000     0.0130   0 0 0 0
G00418           N00494           N00707           116.619    0.0130   0 0 0 0
G00419           N00495           N00484           82.462     0.0130   0 0 0 0
G00420           N00496           N00502           121.655    0.0130   0 0 0 0
G00421           N00497           N00480           72.111     0.0130   0 0 0 0
G00422           N00498           N00494           80.000     0.0130   0 0 0 0
G00423           N00499           N00484           100.000    0.0130   0 0 0 0
G00424           N00500           N00480           56.569     0.0130   0 0 0 0
G00425           N00501           N00500           82.462     0.0130   0 0 0 0
G00426           N00502           N00480           60.000     0.0130   0 0 0 0
G00427           N00503           N00491           82.462     0.0130   0 0 0 0
G00428           N00504           N00780           44.721     0.0130   0 0 0 0
G00429           N00505           N00494           72.111     0.0130   0 0 0 0
G00430           N00506           N00497           44.721     0.0130   0 0 0 0
G00431           N00507           N00502           100.000    0.0130   0 0 0 0
G00432           N00508           N00484           72.111     0.0130   0 0 0 0
G00433           N00509           N00490           82.462     0.0130   0 0 0 0
G00434           N00510           N00480           82.462     0.0130   0 0 0 0
G00435           N00511           N00496           80.000     0.0130   0 0 0 0
G00436           N00512           N00494           89.443     0.0130   0 0 0 0
G00437           N00513           N01069           56.569     0.0130   0 0 0 0
G00438           N00514           N00513           181.108    0.0130   0 0 0 0
G00439           N00515           N00513           282.843    0.0130   0 0 0 0
G00440           N00525           N00515           63.246     0.0130   0 0 0 0
G00441           N00530           N02805           161.245    0.0130   0 0 0 0
G00442           N00532           N00531           228.035    0.0130   0 0 0 0
G00443           N00533           N00531           172.047    0.0130   0 0 0 0
G00444           N00534           N00533           256.125    0.0130   0 0 0 0
G00445           N00535           N02582           144.222    0.0130   0 0 0 0
G00446           N00536           N02163           28.284     0.0130   0 0 0 0
G00447           N00537           N02157           107.703    0.0130   0 0 0 0
G00448           N00538           N00452           60.000     0.0130   0 0 0 0
G00449           N00539           N02465           20.000     0.0130   0 0 0 0
G00450           N00540           N00541           228.035    0.0130   0 0 0 0
G00451           N00541           N01124           72.111     0.0130   0 0 0 0
G00452           N00542           N02465           40.000     0.0130   0 0 0 0
G00453           N00545           N00056           44.721     0.0130   0 0 0 0
G00454           N00546           N00545           164.924    0.0130   0 0 0 0
G00455           N00547           N00546           141.421    0.0130   0 0 0 0
G00456           N00548           N00452           63.246     0.0130   0 0 0 0
G00457           N00549           N00542           100.000    0.0130   0 0 0 0
G00458           N00550           N01581           82.462     0.0130   0 0 0 0
G00459           N00551           N00552           256.125    0.0130   0 0 0 0
G00460           N00552           N00553           269.072    0.0130   0 0 0 0
G00461           N00553           N01002           72.111     0.0130   0 0 0 0
G00462           N00554           N02836           20.000     0.0130   0 0 0 0
G00463           N00555           N00456           80.000     0.0130   0 0 0 0
G00464           N00556           N02845           89.443     0.0130   0 0 0 0
G00465           N00565           N02166           56.569     0.0130   0 0 0 0
G00466           N00566           N02164           82.462     0.0130   0 0 0 0
G00467           N00567           N00411           89.443     0.0130   0 0 0 0
G00468           N00568           N00569           80.000     0.0130   0 0 0 0
G00469           N00569           N01330           82.462     0.0130   0 0 0 0
G00470           N00570           N00410           82.462     0.0130   0 0 0 0
G00471           N00571           N01505           84.853     0.0130   0 0 0 0
G00472           N00572           N00408           100.000    0.0130   0 0 0 0
G00473           N00573           N02595           44.721     0.0130   0 0 0 0
G00474           N00574           N00573           152.315    0.0130   0 0 0 0
G00475           N00575           N01147           101.980    0.0130   0 0 0 0
G00476           N00585           N00587           184.391    0.0130   0 0 0 0
G00477           N00586           N00596           20.000     0.0130   0 0 0 0
G00478           N00587           N00588           107.703    0.0130   0 0 0 0
G00479           N00588           N01510           63.246     0.0130   0 0 0 0
G00480           N00589           N01510           169.706    0.0130   0 0 0 0
G00481           N00590           N00589           160.000    0.0130   0 0 0 0
G00482           N00591           N00590           178.885    0.0130   0 0 0 0
G00483           N00592           N00770           56.569     0.0130   0 0 0 0
G00484           N00596           N01594           82.462     0.0130   0 0 0 0
G00485           N00597           N01565           44.721     0.0130   0 0 0 0
G00486           N00600           N00602           197.990    0.0130   0 0 0 0
G00487           N00603           N00602           101.980    0.0130   0 0 0 0
G00488           N00604           N00605           169.706    0.0130   0 0 0 0
G00489           N00605           N00777           40.000     0.0130   0 0 0 0
G00490           N00607           N00606           240.000    0.0130   0 0 0 0
G00491           N00608           N02750           100.000    0.0130   0 0 0 0
G00492           N00609           N00610           126.491    0.0130   0 0 0 0
G00493           N00610           N00611           152.315    0.0130   0 0 0 0
G00494           N00611           N00929           40.000     0.0130   0 0 0 0
G00495           N00612           N02775           44.721     0.0130   0 0 0 0
G00496           N00614           N02775           200.998    0.0130   0 0 0 0
G00497           N00615           N00614           160.000    0.0130   0 0 0 0
G00498           N00616           N00602           82.462     0.0130   0 0 0 0
G00499           N00617           N00616           188.680    0.0130   0 0 0 0
G00500           N00618           N02100           28.284     0.0130   0 0 0 0
G00501           N00619           N00620           161.245    0.0130   0 0 0 0
G00502           N00620           N01020           44.721     0.0130   0 0 0 0
G00503           N00621           N01609           40.000     0.0130   0 0 0 0
G00504           N00622           N01610           72.111     0.0130   0 0 0 0
G00505           N00623           N01126           82.462     0.0130   0 0 0 0
G00506           N00624           N00623           134.164    0.0130   0 0 0 0
G00507           N00625           N00379           89.443     0.0130   0 0 0 0
G00508           N00626           N01611           82.462     0.0130   0 0 0 0
G00509           N00627           N01126           89.443     0.0130   0 0 0 0
G00510           N00628           N01523           82.462     0.0130   0 0 0 0
G00511           N00629           N00654           60.000     0.0130   0 0 0 0
G00512           N00630           N00235           44.721     0.0130   0 0 0 0
G00513           N00631           N00649           100.000    0.0130   0 0 0 0
G00514           N00632           N02491           72.111     0.0130   0 0 0 0
G00515           N00633           N00237           40.000     0.0130   0 0 0 0
G00516           N00634           N02491           63.246     0.0130   0 0 0 0
G00517           N00635           N00234           82.462     0.0130   0 0 0 0
G00518           N00636           N00235           82.462     0.0130   0 0 0 0
G00519           N00637           N02491           40.000     0.0130   0 0 0 0
G00520           N00638           N01164           100.000    0.0130   0 0 0 0
G00521           N00639           N00640           120.000    0.0130   0 0 0 0
G00522           N00640           N00139           160.000    0.0130   0 0 0 0
G00523           N00641           N00135           84.853     0.0130   0 0 0 0
G00524           N00642           N00136           60.000     0.0130   0 0 0 0
G00525           N00643           N01636           89.443     0.0130   0 0 0 0
G00526           N00644           N00643           82.462     0.0130   0 0 0 0
G00527           N00645           N00644           161.245    0.0130   0 0 0 0
G00528           N00646           N01639           63.246     0.0130   0 0 0 0
G00529           N00647           N00646           141.421    0.0130   0 0 0 0
G00530           N00648           N00236           145.602    0.0130   0 0 0 0
G00531           N00649           N00234           20.000     0.0130   0 0 0 0
G00532           N00650           N01391           56.569     0.0130   0 0 0 0
G00533           N00651           N01391           72.111     0.0130   0 0 0 0
G00534           N00652           N00212           100.000    0.0130   0 0 0 0
G00535           N00653           N00652           172.047    0.0130   0 0 0 0
G00536           N00654           N00237           189.737    0.0130   0 0 0 0
G00537           N00655           N00656           60.000     0.0130   0 0 0 0
G00538           N00656           N01619           101.980    0.0130   0 0 0 0
G00539           N00659           N00177           84.853     0.0130   0 0 0 0
G00540           N00660           N00659           121.655    0.0130   0 0 0 0
G00541           N00661           N00660           116.619    0.0130   0 0 0 0
G00542           N00664           N00665           141.421    0.0130   0 0 0 0
G00543           N00665           N01158           44.721     0.0130   0 0 0 0
G00544           N00667           N01158           181.108    0.0130   0 0 0 0
G00545           N00668           N01143           80.000     0.0130   0 0 0 0
G00546           N00669           N02415           56.569     0.0130   0 0 0 0
G00547           N00670           N00927           63.246     0.0130   0 0 0 0
G00548           N00671           N00929           28.284     0.0130   0 0 0 0
G00549           N00672           N00611           228.035    0.0130   0 0 0 0
G00550           N00673           N01397           44.721     0.0130   0 0 0 0
G00551           N00674           N01777           120.000    0.0130   0 0 0 0
G00552           N00675           N00674           141.421    0.0130   0 0 0 0
G00553           N00676           N00217           40.000     0.0130   0 0 0 0
G00554           N00677           N01971           28.284     0.0130   0 0 0 0
G00555           N00678           N00677           161.245    0.0130   0 0 0 0
G00556           N00679           N00831           89.443     0.0130   0 0 0 0
G00557           N00680           N00323           84.853     0.0130   0 0 0 0
G00558           N00681           N00682           272.029    0.0130   0 0 0 0
G00559           N00683           N00685           184.391    0.0130   0 0 0 0
G00560           N00684           N00683           240.832    0.0130   0 0 0 0
G00561           N00686           N00685           164.924    0.0130   0 0 0 0
G00562           N00687           N00685           161.245    0.0130   0 0 0 0
G00563           N00688           N01968           200.000    0.0130   0 0 0 0
G00564           N00689           N01971           160.000    0.0130   0 0 0 0
G00565           N00690           N02686           44.721     0.0130   0 0 0 0
G00566           N00691           N00696           340.000    0.0130   0 0 0 0
G00567           N00693           N00692           145.602    0.0130   0 0 0 0
G00568           N00694           N00693           280.713    0.0130   0 0 0 0
G00569           N00695           N00604           72.111     0.0130   0 0 0 0
G00570           N00696           N02687           126.491    0.0130   0 0 0 0
G00571           N00697           N02687           40.000     0.0130   0 0 0 0
G00572           N00698           N01337           89.443     0.0130   0 0 0 0
G00573           N00699           N01337           161.245    0.0130   0 0 0 0
G00574           N00700           N01284           82.462     0.0130   0 0 0 0
G00575           N00701           N00702           188.680    0.0130   0 0 0 0
G00576           N00702           N00703           161.245    0.0130   0 0 0 0
G00577           N00704           N00703           89.443     0.0130   0 0 0 0
G00578           N00705           N00603           60.000     0.0130   0 0 0 0
G00579           N00706           N00791           72.111     0.0130   0 0 0 0
G00580           N00707           N01069           63.246     0.0130   0 0 0 0
G00581           N00708           N01413           72.111     0.0130   0 0 0 0
G00582           N00709           N00702           72.111     0.0130   0 0 0 0
G00583           N00710           N00702           80.000     0.0130   0 0 0 0
G00584           N00711           N00698           80.000     0.0130   0 0 0 0
G00585           N00713           N00312           160.000    0.0130   0 0 0 0
G00586           N00714           N00723           89.443     0.0130   0 0 0 0
G00587           N00717           N02097           84.853     0.0130   0 0 0 0
G00588           N00718           N00714           60.000     0.0130   0 0 0 0
G00589           N00720           N00701           241.661    0.0130   0 0 0 0
G00590           N00721           N00616           63.246     0.0130   0 0 0 0
G00591           N00722           N00710           161.245    0.0130   0 0 0 0
G00592           N00723           N00722           205.913    0.0130   0 0 0 0
G00593           N00724           N01318           220.000    0.0130   0 0 0 0
G00594           N00726           N01318           60.000     0.0130   0 0 0 0
G00595           N00727           N01306           82.462     0.0130   0 0 0 0
G00596           N00739           N00740           134.164    0.0130   0 0 0 0
G00597           N00740           N00532           84.853     0.0130   0 0 0 0
G00598           N00745           N00744           180.000    0.0130   0 0 0 0
G00599           N00769           N01459           80.000     0.0130   0 0 0 0
G00600           N00770           N00769           220.907    0.0130   0 0 0 0
G00601           N00773           N01046           82.462     0.0130   0 0 0 0
G00602           N00774           N02556           200.000    0.0130   0 0 0 0
G00603           N00775           N01585           63.246     0.0130   0 0 0 0
G00604           N00776           N00775           240.832    0.0130   0 0 0 0
G00605           N00777           N02533           89.443     0.0130   0 0 0 0
G00606           N00778           N01586           197.990    0.0130   0 0 0 0
G00607           N00779           N00606           72.111     0.0130   0 0 0 0
G00608           N00780           N00494           72.111     0.0130   0 0 0 0
G00609           N00782           N00608           82.462     0.0130   0 0 0 0
G00610           N00783           N00672           44.721     0.0130   0 0 0 0
G00611           N00784           N00929           82.462     0.0130   0 0 0 0
G00612           N00786           N00369           82.462     0.0130   0 0 0 0
G00613           N00787           N00871           100.000    0.0130   0 0 0 0
G00614           N00791           N00700           89.443     0.0130   0 0 0 0
G00615           N00792           N00172           28.284     0.0130   0 0 0 0
G00616           N00793           N02623           63.246     0.0130   0 0 0 0
G00617           N00794           N00172           82.462     0.0130   0 0 0 0
G00618           N00795           N01349           44.721     0.0130   0 0 0 0
G00619           N00796           N01347           56.569     0.0130   0 0 0 0
G00620           N00797           N00798           181.108    0.0130   0 0 0 0
G00621           N00798           N01269           20.000     0.0130   0 0 0 0
G00622           N00799           N01940           72.111     0.0130   0 0 0 0
G00623           N00800           N01943           164.924    0.0130   0 0 0 0
G00624           N00801           N00802           82.462     0.0130   0 0 0 0
G00625           N00802           N02746           82.462     0.0130   0 0 0 0
G00626           N00803           N02056           89.443     0.0130   0 0 0 0
G00627           N00806           N00900           28.284     0.0130   0 0 0 0
G00628           N00808           N00225           63.246     0.0130   0 0 0 0
G00629           N00809           N00811           82.462     0.0130   0 0 0 0
G00630           N00810           N01480           82.462     0.0130   0 0 0 0
G00631           N00811           N02626           56.569     0.0130   0 0 0 0
G00632           N00812           N00811           180.000    0.0130   0 0 0 0
G00633           N00813           N02627           140.000    0.0130   0 0 0 0
G00634           N00814           N00813           161.245    0.0130   0 0 0 0
G00635           N00815           N00216           40.000     0.0130   0 0 0 0
G00636           N00816           N00813           89.443     0.0130   0 0 0 0
G00637           N00817           N00194           63.246     0.0130   0 0 0 0
G00638           N00818           N00220           60.000     0.0130   0 0 0 0
G00639           N00819           N00220           63.246     0.0130   0 0 0 0
G00640           N00820           N00819           181.108    0.0130   0 0 0 0
G00641           N00821           N01540           72.111     0.0130   0 0 0 0
G00642           N00822           N00823           144.222    0.0130   0 0 0 0
G00643           N00823           N00815           101.980    0.0130   0 0 0 0
G00644           N00824           N01066           63.246     0.0130   0 0 0 0
G00645           N00825           N00826           134.164    0.0130   0 0 0 0
G00646           N00826           N01880           56.569     0.0130   0 0 0 0
G00647           N00827           N01066           28.284     0.0130   0 0 0 0
G00648           N00828           N01940           89.443     0.0130   0 0 0 0
G00649           N00829           N01884           72.111     0.0130   0 0 0 0
G00650           N00830           N00831           72.111     0.0130   0 0 0 0
G00651           N00831           N00277           161.245    0.0130   0 0 0 0
G00652           N00833           N00832           84.853     0.0130   0 0 0 0
G00653           N00834           N00833           212.603    0.0130   0 0 0 0
G00654           N00835           N00833           44.721     0.0130   0 0 0 0
G00655           N00836           N00833           56.569     0.0130   0 0 0 0
G00656           N00848           N02244           126.491    0.0130   0 0 0 0
G00657           N00849           N02779           63.246     0.0130   0 0 0 0
G00658           N00850           N00993           89.443     0.0130   0 0 0 0
G00659           N00851           N00986           28.284     0.0130   0 0 0 0
G00660           N00852           N02279           89.443     0.0130   0 0 0 0
G00661           N00853           N02544           63.246     0.0130   0 0 0 0
G00662           N00854           N00540           89.443     0.0130   0 0 0 0
G00663           N00855           N00854           215.407    0.0130   0 0 0 0
G00664           N00856           N02017           63.246     0.0130   0 0 0 0
G00665           N00858           N00854           28.284     0.0130   0 0 0 0
G00666           N00859           N00998           60.000     0.0130   0 0 0 0
G00667           N00860           N00036           89.443     0.0130   0 0 0 0
G00668           N00861           N00860           28.284     0.0130   0 0 0 0
G00669           N00863           N00864           184.391    0.0130   0 0 0 0
G00670           N00864           N00568           82.462     0.0130   0 0 0 0
G00671           N00865           N01330           100.000    0.0130   0 0 0 0
G00672           N00869           N00132           44.721     0.0130   0 0 0 0
G00673           N00870           N00873           120.000    0.0130   0 0 0 0
G00674           N00871           N00870           161.245    0.0130   0 0 0 0
G00675           N00872           N00870           170.880    0.0130   0 0 0 0
G00676           N00875           N00876           223.607    0.0130   0 0 0 0
G00677           N00876           N01868           44.721     0.0130   0 0 0 0
G00678           N00877           N00878           164.924    0.0130   0 0 0 0
G00679           N00878           N00882           28.284     0.0130   0 0 0 0
G00680           N00879           N01454           40.000     0.0130   0 0 0 0
G00681           N00882           N01549           20.000     0.0130   0 0 0 0
G00682           N00887           N01859           40.000     0.0130   0 0 0 0
G00683           N00888           N00878           145.602    0.0130   0 0 0 0
G00684           N00889           N00882           164.924    0.0130   0 0 0 0
G00685           N00890           N00889           160.000    0.0130   0 0 0 0
G00686           N00894           N00892           100.000    0.0130   0 0 0 0
G00687           N00900           N02392           126.491    0.0130   0 0 0 0
G00688           N00901           N02494           89.443     0.0130   0 0 0 0
G00689           N00902           N00903           216.333    0.0130   0 0 0 0
G00690           N00903           N00904           134.164    0.0130   0 0 0 0
G00691           N00905           N00904           152.315    0.0130   0 0 0 0
G00692           N00906           N00905           145.602    0.0130   0 0 0 0
G00693           N00907           N00906           120.000    0.0130   0 0 0 0
G00694           N00908           N01698           20.000     0.0130   0 0 0 0
G00695           N00909           N01711           44.721     0.0130   0 0 0 0
G00696           N00911           N01176           134.164    0.0130   0 0 0 0
G00697           N00914           N00915           28.284     0.0130   0 0 0 0
G00698           N00915           N00916           140.000    0.0130   0 0 0 0
G00699           N00917           N00914           100.000    0.0130   0 0 0 0
G00700           N00918           N00917           161.245    0.0130   0 0 0 0
G00701           N00919           N00915           60.000     0.0130   0 0 0 0
G00702           N00920           N00918           44.721     0.0130   0 0 0 0
G00703           N00921           N00923           364.966    0.0130   0 0 0 0
G00704           N00922           N00915           72.111     0.0130   0 0 0 0
G00705           N00923           N01024           56.569     0.0130   0 0 0 0
G00706           N00924           N01020           63.246     0.0130   0 0 0 0
G00707           N00925           N00918           82.462     0.0130   0 0 0 0
G00708           N00926           N00925           247.386    0.0130   0 0 0 0
G00709           N00928           N00927           84.853     0.0130   0 0 0 0
G00710           N00929           N00928           189.737    0.0130   0 0 0 0
G00711           N00930           N02417           82.462     0.0130   0 0 0 0
G00712           N00931           N01051           44.721     0.0130   0 0 0 0
G00713           N00932           N01048           181.108    0.0130   0 0 0 0
G00714           N00933           N00083           63.246     0.0130   0 0 0 0
G00715           N00934           N00088           161.245    0.0130   0 0 0 0
G00716           N00941           N01476           89.443     0.0130   0 0 0 0
G00717           N00944           N01218           28.284     0.0130   0 0 0 0
G00718           N00945           N00951           100.000    0.0130   0 0 0 0
G00719           N00946           N00951           101.980    0.0130   0 0 0 0
G00720           N00947           N00945           80.000     0.0130   0 0 0 0
G00721           N00948           N00947           107.703    0.0130   0 0 0 0
G00722           N00949           N00948           84.853     0.0130   0 0 0 0
G00723           N00951           N00952           141.421    0.0130   0 0 0 0
G00724           N00952           N02829           100.000    0.0130   0 0 0 0
G00725           N00954           N00955           180.000    0.0130   0 0 0 0
G00726           N00955           N02142           160.000    0.0130   0 0 0 0
G00727           N00957           N02176           60.000     0.0130   0 0 0 0
G00728           N00958           N00959           89.443     0.0130   0 0 0 0
G00729           N00959           N01389           56.569     0.0130   0 0 0 0
G00730           N00962           N00189           84.853     0.0130   0 0 0 0
G00731           N00963           N01333           72.111     0.0130   0 0 0 0
G00732           N00964           N00191           84.853     0.0130   0 0 0 0
G00733           N00965           N00188           28.284     0.0130   0 0 0 0
G00734           N00974           N00612           101.980    0.0130   0 0 0 0
G00735           N00975           N02753           82.462     0.0130   0 0 0 0
G00736           N00979           N00980           181.108    0.0130   0 0 0 0
G00737           N00980           N00954           44.721     0.0130   0 0 0 0
G00738           N00983           N00997           20.000     0.0130   0 0 0 0
G00739           N00984           N00983           140.000    0.0130   0 0 0 0
G00740           N00985           N00850           63.246     0.0130   0 0 0 0
G00741           N00986           N02778           82.462     0.0130   0 0 0 0
G00742           N00987           N00483           100.000    0.0130   0 0 0 0
G00743           N00988           N00481           40.000     0.0130   0 0 0 0
G00744           N00989           N00502           44.721     0.0130   0 0 0 0
G00745           N00990           N00999           40.000     0.0130   0 0 0 0
G00746           N00991           N00483           189.737    0.0130   0 0 0 0
G00747           N00992           N00993           140.000    0.0130   0 0 0 0
G00748           N00993           N02843           60.000     0.0130   0 0 0 0
G00749           N00994           N00987           60.000     0.0130   0 0 0 0
G00750           N00996           N00860           63.246     0.0130   0 0 0 0
G00751           N00997           N00036           100.000    0.0130   0 0 0 0
G00752           N00998           N00997           56.569     0.0130   0 0 0 0
G00753           N00999           N00035           89.443     0.0130   0 0 0 0
G00754           N01000           N00033           28.284     0.0130   0 0 0 0
G00755           N01001           N01000           126.491    0.0130   0 0 0 0
G00756           N01002           N02845           72.111     0.0130   0 0 0 0
G00757           N01003           N01002           312.410    0.0130   0 0 0 0
G00758           N01004           N00984           84.853     0.0130   0 0 0 0
G00759           N01006           N01007           172.047    0.0130   0 0 0 0
G00760           N01007           N01325           56.569     0.0130   0 0 0 0
G00761           N01008           N00034           80.000     0.0130   0 0 0 0
G00762           N01009           N02019           40.000     0.0130   0 0 0 0
G00763           N01010           N02782           84.853     0.0130   0 0 0 0
G00764           N01011           N01010           120.000    0.0130   0 0 0 0
G00765           N01012           N01611           178.885    0.0130   0 0 0 0
G00766           N01013           N02539           188.680    0.0130   0 0 0 0
G00767           N01015           N00724           60.000     0.0130   0 0 0 0
G00768           N01016           N00724           63.246     0.0130   0 0 0 0
G00769           N01019           N01021           80.000     0.0130   0 0 0 0
G00770           N01020           N01024           60.000     0.0130   0 0 0 0
G00771           N01021           N01020           404.475    0.0130   0 0 0 0
G00772           N01022           N01023           181.108    0.0130   0 0 0 0
G00773           N01023           N01021           82.462     0.0130   0 0 0 0
G00774           N01025           N00142           82.462     0.0130   0 0 0 0
G00775           N01026           N00154           100.000    0.0130   0 0 0 0
G00776           N01028           N01606           40.000     0.0130   0 0 0 0
G00777           N01029           N01751           121.655    0.0130   0 0 0 0
G00778           N01030           N01034           44.721     0.0130   0 0 0 0
G00779           N01031           N02715           100.000    0.0130   0 0 0 0
G00780           N01032           N02614           44.721     0.0130   0 0 0 0
G00781           N01033           N02208           40.000     0.0130   0 0 0 0
G00782           N01034           N01035           220.000    0.0130   0 0 0 0
G00783           N01035           N01450           60.000     0.0130   0 0 0 0
G00784           N01036           N00289           60.000     0.0130   0 0 0 0
G00785           N01037           N01551           44.721     0.0130   0 0 0 0
G00786           N01038           N01039           160.000    0.0130   0 0 0 0
G00787           N01039           N00280           40.000     0.0130   0 0 0 0
G00788           N01040           N02102           100.000    0.0130   0 0 0 0
G00789           N01042           N02687           60.000     0.0130   0 0 0 0
G00790           N01043           N01044           121.655    0.0130   0 0 0 0
G00791           N01044           N02522           89.443     0.0130   0 0 0 0
G00792           N01045           N01460           100.000    0.0130   0 0 0 0
G00793           N01046           N00605           82.462     0.0130   0 0 0 0
G00794           N01047           N01046           169.706    0.0130   0 0 0 0
G00795           N01048           N00606           60.000     0.0130   0 0 0 0
G00796           N01049           N00779           84.853     0.0130   0 0 0 0
G00797           N01050           N01049           152.315    0.0130   0 0 0 0
G00798           N01051           N00607           72.111     0.0130   0 0 0 0
G00799           N01052           N00779           63.246     0.0130   0 0 0 0
G00800           N01053           N01054           180.000    0.0130   0 0 0 0
G00801           N01054           N00606           44.721     0.0130   0 0 0 0
G00802           N01055           N00779           72.111     0.0130   0 0 0 0
G00803           N01056           N02534           100.000    0.0130   0 0 0 0
G00804           N01057           N00604           100.000    0.0130   0 0 0 0
G00805           N01058           N01585           40.000     0.0130   0 0 0 0
G00806           N01059           N00721           60.000     0.0130   0 0 0 0
G00807           N01060           N01053           72.111     0.0130   0 0 0 0
G00808           N01061           N01062           215.407    0.0130   0 0 0 0
G00809           N01062           N02245           28.284     0.0130   0 0 0 0
G00810           N01063           N02240           20.000     0.0130   0 0 0 0
G00811           N01064           N02238           250.599    0.0130   0 0 0 0
G00812           N01065           N02241           100.000    0.0130   0 0 0 0
G00813           N01066           N01785           80.000     0.0130   0 0 0 0
G00814           N01067           N01787           44.721     0.0130   0 0 0 0
G00815           N01069           N01068           203.961    0.0130   0 0 0 0
G00816           N01070           N02006           63.246     0.0130   0 0 0 0
G00817           N01071           N02003           140.000    0.0130   0 0 0 0
G00818           N01072           N01897           44.721     0.0130   0 0 0 0
G00819           N01073           N01074           440.454    0.0130   0 0 0 0
G00820           N01074           N01993           100.000    0.0130   0 0 0 0
G00821           N01075           N01897           56.569     0.0130   0 0 0 0
G00822           N01076           N01341           44.721     0.0130   0 0 0 0
G00823           N01077           N00830           40.000     0.0130   0 0 0 0
G00824           N01078           N01935           56.569     0.0130   0 0 0 0
G00825           N01080           N01081           220.907    0.0130   0 0 0 0
G00826           N01083           N00217           200.000    0.0130   0 0 0 0
G00827           N01084           N00250           240.000    0.0130   0 0 0 0
G00828           N01086           N02814           63.246     0.0130   0 0 0 0
G00829           N01089           N01053           63.246     0.0130   0 0 0 0
G00830           N01091           N02781           100.000    0.0130   0 0 0 0
G00831           N01092           N01093           164.924    0.0130   0 0 0 0
G00832           N01093           N02408           228.035    0.0130   0 0 0 0
G00833           N01098           N01497           56.569     0.0130   0 0 0 0
G00834           N01100           N01497           44.721     0.0130   0 0 0 0
G00835           N01101           N01098           72.111     0.0130   0 0 0 0
G00836           N01102           N01103           120.000    0.0130   0 0 0 0
G00837           N01103           N01456           120.000    0.0130   0 0 0 0
G00838           N01111           N01966           100.000    0.0130   0 0 0 0
G00839           N01112           N01802           101.980    0.0130   0 0 0 0
G00840           N01113           N01115           28.284     0.0130   0 0 0 0
G00841           N01114           N01113           164.924    0.0130   0 0 0 0
G00842           N01115           N00294           101.980    0.0130   0 0 0 0
G00843           N01116           N02208           44.721     0.0130   0 0 0 0
G00844           N01117           N01116           170.880    0.0130   0 0 0 0
G00845           N01118           N00306           120.000    0.0130   0 0 0 0
G00846           N01120           N01119           240.000    0.0130   0 0 0 0
G00847           N01121           N01996           72.111     0.0130   0 0 0 0
G00848           N01122           N01867           100.000    0.0130   0 0 0 0
G00849           N01123           N01693           100.000    0.0130   0 0 0 0
G00850           N01124           N02502           56.569     0.0130   0 0 0 0
G00851           N01125           N00387           184.391    0.0130   0 0 0 0
G00852           N01126           N01610           56.569     0.0130   0 0 0 0
G00853           N01127           N01129           100.000    0.0130   0 0 0 0
G00854           N01128           N00890           60.000     0.0130   0 0 0 0
G00855           N01129           N00889           44.721     0.0130   0 0 0 0
G00856           N01130           N00890           28.284     0.0130   0 0 0 0
G00857           N01131           N00889           44.721     0.0130   0 0 0 0
G00858           N01132           N01131           100.000    0.0130   0 0 0 0
G00859           N01133           N00347           60.000     0.0130   0 0 0 0
G00860           N01137           N02447           89.443     0.0130   0 0 0 0
G00861           N01140           N01533           40.000     0.0130   0 0 0 0
G00862           N01141           N01598           44.721     0.0130   0 0 0 0
G00863           N01142           N01141           89.443     0.0130   0 0 0 0
G00864           N01143           N01146           161.245    0.0130   0 0 0 0
G00865           N01144           N02413           63.246     0.0130   0 0 0 0
G00866           N01145           N02411           28.284     0.0130   0 0 0 0
G00867           N01146           N01147           134.164    0.0130   0 0 0 0
G00868           N01154           N01147           40.000     0.0130   0 0 0 0
G00869           N01158           N02294           82.462     0.0130   0 0 0 0
G00870           N01162           N00656           145.602    0.0130   0 0 0 0
G00871           N01163           N00656           140.000    0.0130   0 0 0 0
G00872           N01164           N00233           20.000     0.0130   0 0 0 0
G00873           N01166           N00590           63.246     0.0130   0 0 0 0
G00874           N01176           N01198           144.222    0.0130   0 0 0 0
G00875           N01185           N02590           60.000     0.0130   0 0 0 0
G00876           N01186           N00911           82.462     0.0130   0 0 0 0
G00877           N01204           N01205           184.391    0.0130   0 0 0 0
G00878           N01205           N01285           20.000     0.0130   0 0 0 0
G00879           N01207           N01206           180.000    0.0130   0 0 0 0
G00880           N01208           N01207           200.000    0.0130   0 0 0 0
G00881           N01209           N02138           28.284     0.0130   0 0 0 0
G00882           N01210           N00865           40.000     0.0130   0 0 0 0
G00883           N01211           N00024           44.721     0.0130   0 0 0 0
G00884           N01212           N00863           44.721     0.0130   0 0 0 0
G00885           N01213           N02292           226.274    0.0130   0 0 0 0
G00886           N01215           N01214           140.000    0.0130   0 0 0 0
G00887           N01216           N01250           101.980    0.0130   0 0 0 0
G00888           N01218           N02305           100.000    0.0130   0 0 0 0
G00889           N01240           N02259           28.284     0.0130   0 0 0 0
G00890           N01241           N02261           100.000    0.0130   0 0 0 0
G00891           N01247           N01248           200.998    0.0130   0 0 0 0
G00892           N01248           N00643           63.246     0.0130   0 0 0 0
G00893           N01249           N01636           28.284     0.0130   0 0 0 0
G00894           N01250           N02305           100.000    0.0130   0 0 0 0
G00895           N01251           N02133           40.000     0.0130   0 0 0 0
G00896           N01252           N01251           161.245    0.0130   0 0 0 0
G00897           N01253           N00453           80.000     0.0130   0 0 0 0
G00898           N01254           N02128           63.246     0.0130   0 0 0 0
G00899           N01255           N02124           28.284     0.0130   0 0 0 0
G00900           N01256           N01973           44.721     0.0130   0 0 0 0
G00901           N01257           N01973           60.000     0.0130   0 0 0 0
G00902           N01258           N01973           63.246     0.0130   0 0 0 0
G00903           N01260           N01259           116.619    0.0130   0 0 0 0
G00904           N01264           N02028           60.000     0.0130   0 0 0 0
G00905           N01265           N02047           56.569     0.0130   0 0 0 0
G00906           N01266           N01267           223.607    0.0130   0 0 0 0
G00907           N01267           N00686           44.721     0.0130   0 0 0 0
G00908           N01270           N01269           260.000    0.0130   0 0 0 0
G00909           N01271           N02475           40.000     0.0130   0 0 0 0
G00910           N01272           N01947           72.111     0.0130   0 0 0 0
G00911           N01273           N01953           72.111     0.0130   0 0 0 0
G00912           N01274           N01953           84.853     0.0130   0 0 0 0
G00913           N01275           N00692           141.421    0.0130   0 0 0 0
G00914           N01276           N01414           357.771    0.0130   0 0 0 0
G00915           N01277           N02097           100.000    0.0130   0 0 0 0
G00916           N01278           N02104           82.462     0.0130   0 0 0 0
G00917           N01279           N02028           44.721     0.0130   0 0 0 0
G00918           N01280           N02430           164.924    0.0130   0 0 0 0
G00919           N01281           N01282           188.680    0.0130   0 0 0 0
G00920           N01282           N01587           113.137    0.0130   0 0 0 0
G00921           N01283           N01335           40.000     0.0130   0 0 0 0
G00922           N01284           N00711           44.721     0.0130   0 0 0 0
G00923           N01285           N01135           134.164    0.0130   0 0 0 0
G00924           N01287           N02795           44.721     0.0130   0 0 0 0
G00925           N01288           N02114           28.284     0.0130   0 0 0 0
G00926           N01289           N01288           240.000    0.0130   0 0 0 0
G00927           N01290           N00877           28.284     0.0130   0 0 0 0
G00928           N01291           N02543           80.000     0.0130   0 0 0 0
G00929           N01292           N00271           20.000     0.0130   0 0 0 0
G00930           N01294           N01297           63.246     0.0130   0 0 0 0
G00931           N01295           N01296           44.721     0.0130   0 0 0 0
G00932           N01296           N01297           184.391    0.0130   0 0 0 0
G00933           N01297           N01299           141.421    0.0130   0 0 0 0
G00934           N01298           N01296           120.000    0.0130   0 0 0 0
G00935           N01300           N01299           141.421    0.0130   0 0 0 0
G00936           N01302           N01711           72.111     0.0130   0 0 0 0
G00937           N01303           N01304           44.721     0.0130   0 0 0 0
G00938           N01304           N01204           107.703    0.0130   0 0 0 0
G00939           N01305           N00619           63.246     0.0130   0 0 0 0
G00940           N01306           N00924           80.000     0.0130   0 0 0 0
G00941           N01307           N01306           82.462     0.0130   0 0 0 0
G00942           N01308           N01016           40.000     0.0130   0 0 0 0
G00943           N01309           N00724           100.000    0.0130   0 0 0 0
G00944           N01310           N02438           28.284     0.0130   0 0 0 0
G00945           N01311           N01310           180.000    0.0130   0 0 0 0
G00946           N01312           N02437           60.000     0.0130   0 0 0 0
G00947           N01313           N01312           208.806    0.0130   0 0 0 0
G00948           N01314           N01397           56.569     0.0130   0 0 0 0
G00949           N01315           N00724           89.443     0.0130   0 0 0 0
G00950           N01316           N01015           60.000     0.0130   0 0 0 0
G00951           N01317           N01306           100.000    0.0130   0 0 0 0
G00952           N01318           N00008           60.000     0.0130   0 0 0 0
G00953           N01319           N00724           63.246     0.0130   0 0 0 0
G00954           N01320           N01319           188.680    0.0130   0 0 0 0
G00955           N01324           N00513           63.246     0.0130   0 0 0 0
G00956           N01325           N01327           82.462     0.0130   0 0 0 0
G00957           N01326           N00571           44.721     0.0130   0 0 0 0
G00958           N01327           N01328           141.421    0.0130   0 0 0 0
G00959           N01328           N01329           101.980    0.0130   0 0 0 0
G00960           N01330           N01329           181.108    0.0130   0 0 0 0
G00961           N01331           N01329           89.443     0.0130   0 0 0 0
G00962           N01332           N01335           63.246     0.0130   0 0 0 0
G00963           N01333           N01334           178.885    0.0130   0 0 0 0
G00964           N01336           N01335           56.569     0.0130   0 0 0 0
G00965           N01337           N01335           107.703    0.0130   0 0 0 0
G00966           N01338           N00311           84.853     0.0130   0 0 0 0
G00967           N01339           N01412           141.421    0.0130   0 0 0 0
G00968           N01340           N01911           100.000    0.0130   0 0 0 0
G00969           N01341           N01923           145.602    0.0130   0 0 0 0
G00970           N01342           N00323           72.111     0.0130   0 0 0 0
G00971           N01343           N01952           82.462     0.0130   0 0 0 0
G00972           N01344           N01346           60.000     0.0130   0 0 0 0
G00973           N01345           N01348           89.443     0.0130   0 0 0 0
G00974           N01346           N00104           89.443     0.0130   0 0 0 0
G00975           N01347           N00172           72.111     0.0130   0 0 0 0
G00976           N01348           N00172           80.000     0.0130   0 0 0 0
G00977           N01349           N01346           89.443     0.0130   0 0 0 0
G00978           N01350           N00213           100.000    0.0130   0 0 0 0
G00979           N01351           N00833           141.421    0.0130   0 0 0 0
G00980           N01352           N02540           44.721     0.0130   0 0 0 0
G00981           N01353           N00608           82.462     0.0130   0 0 0 0
G00982           N01354           N00775           80.000     0.0130   0 0 0 0
G00983           N01355           N00284           82.462     0.0130   0 0 0 0
G00984           N01358           N00291           82.462     0.0130   0 0 0 0
G00985           N01361           N00493           82.462     0.0130   0 0 0 0
G00986           N01362           N01278           44.721     0.0130   0 0 0 0
G00987           N01363           N01362           145.602    0.0130   0 0 0 0
G00988           N01364           N00316           28.284     0.0130   0 0 0 0
G00989           N01365           N01277           56.569     0.0130   0 0 0 0
G00990           N01367           N01366           89.443     0.0130   0 0 0 0
G00991           N01368           N01366           184.391    0.0130   0 0 0 0
G00992           N01369           N01400           44.721     0.0130   0 0 0 0
G00993           N01370           N00142           100.000    0.0130   0 0 0 0
G00994           N01371           N01370           266.833    0.0130   0 0 0 0
G00995           N01372           N01371           126.491    0.0130   0 0 0 0
G00996           N01373           N00007           60.000     0.0130   0 0 0 0
G00997           N01374           N00098           60.000     0.0130   0 0 0 0
G00998           N01377           N02810           40.000     0.0130   0 0 0 0
G00999           N01378           N01379           180.000    0.0130   0 0 0 0
G01000           N01380           N01045           82.462     0.0130   0 0 0 0
G01001           N01381           N01384           56.569     0.0130   0 0 0 0
G01002           N01382           N00836           100.000    0.0130   0 0 0 0
G01003           N01383           N01384           72.111     0.0130   0 0 0 0
G01004           N01384           N00833           226.274    0.0130   0 0 0 0
G01005           N01385           N02181           100.000    0.0130   0 0 0 0
G01006           N01386           N02179           63.246     0.0130   0 0 0 0
G01007           N01387           N01386           156.205    0.0130   0 0 0 0
G01008           N01388           N01387           84.853     0.0130   0 0 0 0
G01009           N01389           N01388           89.443     0.0130   0 0 0 0
G01010           N01390           N01389           84.853     0.0130   0 0 0 0
G01011           N01391           N00211           44.721     0.0130   0 0 0 0
G01012           N01392           N02558           100.000    0.0130   0 0 0 0
G01013           N01393           N00097           63.246     0.0130   0 0 0 0
G01014           N01394           N00093           63.246     0.0130   0 0 0 0
G01015           N01395           N00092           80.000     0.0130   0 0 0 0
G01016           N01396           N00092           60.000     0.0130   0 0 0 0
G01017           N01397           N00914           282.843    0.0130   0 0 0 0
G01018           N01398           N01397           28.284     0.0130   0 0 0 0
G01019           N01399           N01405           100.000    0.0130   0 0 0 0
G01020           N01400           N01399           181.108    0.0130   0 0 0 0
G01021           N01401           N01399           28.284     0.0130   0 0 0 0
G01022           N01402           N00157           101.980    0.0130   0 0 0 0
G01023           N01404           N02366           82.462     0.0130   0 0 0 0
G01024           N01405           N02698           40.000     0.0130   0 0 0 0
G01025           N01406           N02563           82.462     0.0130   0 0 0 0
G01026           N01407           N00619           56.569     0.0130   0 0 0 0
G01027           N01408           N01400           40.000     0.0130   0 0 0 0
G01028           N01409           N01371           44.721     0.0130   0 0 0 0
G01029           N01410           N01411           184.391    0.0130   0 0 0 0
G01030           N01411           N01025           100.000    0.0130   0 0 0 0
G01031           N01412           N00704           134.164    0.0130   0 0 0 0
G01032           N01413           N00703           72.111     0.0130   0 0 0 0
G01033           N01414           N01413           216.333    0.0130   0 0 0 0
G01034           N01420           N01841           141.421    0.0130   0 0 0 0
G01035           N01421           N02463           84.853     0.0130   0 0 0 0
G01036           N01422           N01854           63.246     0.0130   0 0 0 0
G01037           N01425           N01441           28.284     0.0130   0 0 0 0
G01038           N01426           N01854           60.000     0.0130   0 0 0 0
G01039           N01427           N01854           60.000     0.0130   0 0 0 0
G01040           N01428           N01834           63.246     0.0130   0 0 0 0
G01041           N01429           N01428           160.000    0.0130   0 0 0 0
G01042           N01430           N02614           63.246     0.0130   0 0 0 0
G01043           N01431           N00303           44.721     0.0130   0 0 0 0
G01044           N01432           N00300           28.284     0.0130   0 0 0 0
G01045           N01433           N01432           160.000    0.0130   0 0 0 0
G01046           N01434           N01431           84.853     0.0130   0 0 0 0
G01047           N01435           N01434           160.000    0.0130   0 0 0 0
G01048           N01436           N01827           80.000     0.0130   0 0 0 0
G01049           N01437           N01439           56.569     0.0130   0 0 0 0
G01050           N01438           N01439           72.111     0.0130   0 0 0 0
G01051           N01439           N01835           140.000    0.0130   0 0 0 0
G01052           N01440           N01439           44.721     0.0130   0 0 0 0
G01053           N01441           N01442           152.315    0.0130   0 0 0 0
G01054           N01443           N01854           100.000    0.0130   0 0 0 0
G01055           N01444           N01441           63.246     0.0130   0 0 0 0
G01056           N01445           N01446           141.421    0.0130   0 0 0 0
G01057           N01446           N01808           82.462     0.0130   0 0 0 0
G01058           N01447           N01804           28.284     0.0130   0 0 0 0
G01059           N01448           N01447           200.998    0.0130   0 0 0 0
G01060           N01449           N01841           180.000    0.0130   0 0 0 0
G01061           N01450           N01691           44.721     0.0130   0 0 0 0
G01062           N01451           N01742           28.284     0.0130   0 0 0 0
G01063           N01452           N01451           161.245    0.0130   0 0 0 0
G01064           N01453           N01791           100.000    0.0130   0 0 0 0
G01065           N01454           N00891           100.000    0.0130   0 0 0 0
G01066           N01455           N01454           56.569     0.0130   0 0 0 0
G01067           N01456           N01455           160.000    0.0130   0 0 0 0
G01068           N01457           N02081           152.315    0.0130   0 0 0 0
G01069           N01458           N01141           82.462     0.0130   0 0 0 0
G01070           N01460           N00156           63.246     0.0130   0 0 0 0
G01071           N01461           N01460           220.907    0.0130   0 0 0 0
G01072           N01462           N00156           145.602    0.0130   0 0 0 0
G01073           N01463           N01464           156.205    0.0130   0 0 0 0
G01074           N01465           N01464           134.164    0.0130   0 0 0 0
G01075           N01466           N01945           89.443     0.0130   0 0 0 0
G01076           N01467           N00795           100.000    0.0130   0 0 0 0
G01077           N01468           N01466           128.062    0.0130   0 0 0 0
G01078           N01469           N01466           89.443     0.0130   0 0 0 0
G01079           N01470           N01388           84.853     0.0130   0 0 0 0
G01080           N01471           N02178           100.000    0.0130   0 0 0 0
G01081           N01472           N02181           44.721     0.0130   0 0 0 0
G01082           N01474           N02494           28.284     0.0130   0 0 0 0
G01083           N01475           N00196           128.062    0.0130   0 0 0 0
G01084           N01477           N01476           40.000     0.0130   0 0 0 0
G01085           N01478           N01476           100.000    0.0130   0 0 0 0
G01086           N01479           N01481           82.462     0.0130   0 0 0 0
G01087           N01480           N01479           161.245    0.0130   0 0 0 0
G01088           N01481           N02608           184.391    0.0130   0 0 0 0
G01089           N01482           N02622           100.000    0.0130   0 0 0 0
G01090           N01483           N02475           82.462     0.0130   0 0 0 0
G01091           N01484           N00808           60.000     0.0130   0 0 0 0
G01092           N01485           N01273           120.000    0.0130   0 0 0 0
G01093           N01486           N01659           40.000     0.0130   0 0 0 0
G01094           N01487           N00380           100.000    0.0130   0 0 0 0
G01095           N01488           N01082           82.462     0.0130   0 0 0 0
G01096           N01489           N00328           60.000     0.0130   0 0 0 0
G01097           N01490           N01489           101.980    0.0130   0 0 0 0
G01098           N01491           N00015           63.246     0.0130   0 0 0 0
G01099           N01492           N01491           181.108    0.0130   0 0 0 0
G01100           N01493           N01295           80.000     0.0130   0 0 0 0
G01101           N01494           N01496           160.000    0.0130   0 0 0 0
G01102           N01495           N01300           20.000     0.0130   0 0 0 0
G01103           N01496           N00327           44.721     0.0130   0 0 0 0
G01104           N01497           N01498           282.843    0.0130   0 0 0 0
G01105           N01498           N01499           82.462     0.0130   0 0 0 0
G01106           N01499           N00392           28.284     0.0130   0 0 0 0
G01107           N01500           N00325           140.000    0.0130   0 0 0 0
G01108           N01501           N01747           28.284     0.0130   0 0 0 0
G01109           N01502           N00326           89.443     0.0130   0 0 0 0
G01110           N01503           N02415           63.246     0.0130   0 0 0 0
G01111           N01504           N00863           60.000     0.0130   0 0 0 0
G01112           N01505           N01329           44.721     0.0130   0 0 0 0
G01113           N01508           N00537           40.000     0.0130   0 0 0 0
G01114           N01511           N01510           161.245    0.0130   0 0 0 0
G01115           N01512           N01513           216.333    0.0130   0 0 0 0
G01116           N01513           N02803           44.721     0.0130   0 0 0 0
G01117           N01514           N00008           184.391    0.0130   0 0 0 0
G01118           N01515           N01516           121.655    0.0130   0 0 0 0
G01119           N01516           N01517           181.108    0.0130   0 0 0 0
G01120           N01517           N00013           82.462     0.0130   0 0 0 0
G01121           N01519           N00330           80.000     0.0130   0 0 0 0
G01122           N01520           N02802           72.111     0.0130   0 0 0 0
G01123           N01521           N00357           40.000     0.0130   0 0 0 0
G01124           N01522           N01126           84.853     0.0130   0 0 0 0
G01125           N01523           N00622           56.569     0.0130   0 0 0 0
G01126           N01524           N00532           72.111     0.0130   0 0 0 0
G01127           N01525           N02158           56.569     0.0130   0 0 0 0
G01128           N01526           N01668           44.721     0.0130   0 0 0 0
G01129           N01527           N00984           72.111     0.0130   0 0 0 0
G01130           N01528           N01004           121.655    0.0130   0 0 0 0
G01131           N01529           N02836           56.569     0.0130   0 0 0 0
G01132           N01530           N01531           160.000    0.0130   0 0 0 0
G01133           N01531           N02845           100.000    0.0130   0 0 0 0
G01134           N01532           N00458           28.284     0.0130   0 0 0 0
G01135           N01533           N01534           184.391    0.0130   0 0 0 0
G01136           N01534           N00587           134.164    0.0130   0 0 0 0
G01137           N01535           N00591           72.111     0.0130   0 0 0 0
G01138           N01536           N02595           40.000     0.0130   0 0 0 0
G01139           N01537           N00251           80.000     0.0130   0 0 0 0
G01140           N01538           N00245           56.569     0.0130   0 0 0 0
G01141           N01539           N01537           80.000     0.0130   0 0 0 0
G01142           N01540           N00815           63.246     0.0130   0 0 0 0
G01143           N01541           N01540           101.980    0.0130   0 0 0 0
G01144           N01543           N00904           28.284     0.0130   0 0 0 0
G01145           N01544           N01543           161.245    0.0130   0 0 0 0
G01146           N01547           N02700           82.462     0.0130   0 0 0 0
G01147           N01548           N01549           113.137    0.0130   0 0 0 0
G01148           N01550           N01288           89.443     0.0130   0 0 0 0
G01149           N01551           N00281           28.284     0.0130   0 0 0 0
G01150           N01552           N00282           89.443     0.0130   0 0 0 0
G01151           N01553           N01967           100.000    0.0130   0 0 0 0
G01152           N01554           N00276           72.111     0.0130   0 0 0 0
G01153           N01555           N01967           80.000     0.0130   0 0 0 0
G01154           N01559           N01741           100.000    0.0130   0 0 0 0
G01155           N01560           N01561           228.035    0.0130   0 0 0 0
G01156           N01561           N00685           82.462     0.0130   0 0 0 0
G01157           N01562           N01533           20.000     0.0130   0 0 0 0
G01158           N01563           N01564           161.245    0.0130   0 0 0 0
G01159           N01564           N01510           44.721     0.0130   0 0 0 0
G01160           N01565           N01566           126.491    0.0130   0 0 0 0
G01161           N01566           N00589           44.721     0.0130   0 0 0 0
G01162           N01572           N00229           101.980    0.0130   0 0 0 0
G01163           N01573           N00257           40.000     0.0130   0 0 0 0
G01164           N01574           N01776           28.284     0.0130   0 0 0 0
G01165           N01575           N01574           160.000    0.0130   0 0 0 0
G01166           N01576           N01788           80.000     0.0130   0 0 0 0
G01167           N01577           N02316           89.443     0.0130   0 0 0 0
G01168           N01578           N01579           160.000    0.0130   0 0 0 0
G01169           N01579           N00954           28.284     0.0130   0 0 0 0
G01170           N01580           N02047           60.000     0.0130   0 0 0 0
G01171           N01581           N02022           80.000     0.0130   0 0 0 0
G01172           N01582           N02022           100.000    0.0130   0 0 0 0
G01173           N01583           N01898           60.000     0.0130   0 0 0 0
G01174           N01584           N00175           121.655    0.0130   0 0 0 0
G01175           N01585           N01588           100.000    0.0130   0 0 0 0
G01176           N01586           N01585           72.111     0.0130   0 0 0 0
G01177           N01587           N00616           56.569     0.0130   0 0 0 0
G01178           N01588           N00721           44.721     0.0130   0 0 0 0
G01179           N01591           N02550           44.721     0.0130   0 0 0 0
G01180           N01594           N01511           172.047    0.0130   0 0 0 0
G01181           N01595           N01594           126.491    0.0130   0 0 0 0
G01182           N01596           N01564           84.853     0.0130   0 0 0 0
G01183           N01597           N01596           100.000    0.0130   0 0 0 0
G01184           N01598           N01597           184.391    0.0130   0 0 0 0
G01185           N01599           N02740           63.246     0.0130   0 0 0 0
G01186           N01601           N01353           63.246     0.0130   0 0 0 0
G01187           N01602           N01353           82.462     0.0130   0 0 0 0
G01188           N01606           N00382           160.000    0.0130   0 0 0 0
G01189           N01607           N01490           40.000     0.0130   0 0 0 0
G01190           N01608           N01491           40.000     0.0130   0 0 0 0
G01191           N01609           N01610           188.680    0.0130   0 0 0 0
G01192           N01611           N01610           134.164    0.0130   0 0 0 0
G01193           N01612           N01883           89.443     0.0130   0 0 0 0
G01194           N01613           N00631           72.111     0.0130   0 0 0 0
G01195           N01614           N00631           82.462     0.0130   0 0 0 0
G01196           N01615           N02842           80.000     0.0130   0 0 0 0
G01197           N01616           N02709           56.569     0.0130   0 0 0 0
G01198           N01617           N01616           152.315    0.0130   0 0 0 0
G01199           N01618           N00405           184.391    0.0130   0 0 0 0
G01200           N01619           N00907           100.000    0.0130   0 0 0 0
G01201           N01620           N01618           84.853     0.0130   0 0 0 0
G01202           N01621           N02802           44.721     0.0130   0 0 0 0
G01203           N01622           N02618           100.000    0.0130   0 0 0 0
G01204           N01623           N01627           72.111     0.0130   0 0 0 0
G01205           N01624           N01623           156.205    0.0130   0 0 0 0
G01206           N01625           N02375           82.462     0.0130   0 0 0 0
G01207           N01626           N01080           161.245    0.0130   0 0 0 0
G01208           N01627           N00871           44.721     0.0130   0 0 0 0
G01209           N01628           N02383           357.771    0.0130   0 0 0 0
G01210           N01629           N02605           100.000    0.0130   0 0 0 0
G01211           N01630           N00641           56.569     0.0130   0 0 0 0
G01212           N01631           N00641           223.607    0.0130   0 0 0 0
G01213           N01632           N00959           82.462     0.0130   0 0 0 0
G01214           N01634           N02191           20.000     0.0130   0 0 0 0
G01215           N01635           N01636           164.924    0.0130   0 0 0 0
G01216           N01636           N01641           80.000     0.0130   0 0 0 0
G01217           N01637           N01638           161.245    0.0130   0 0 0 0
G01218           N01638           N01635           20.000     0.0130   0 0 0 0
G01219           N01639           N01637           100.000    0.0130   0 0 0 0
G01220           N01640           N00647           60.000     0.0130   0 0 0 0
G01221           N01642           N00631           60.000     0.0130   0 0 0 0
G01222           N01643           N01082           63.246     0.0130   0 0 0 0
G01223           N01645           N00092           72.111     0.0130   0 0 0 0
G01224           N01646           N01645           178.885    0.0130   0 0 0 0
G01225           N01647           N01516           44.721     0.0130   0 0 0 0
G01226           N01648           N00012           100.000    0.0130   0 0 0 0
G01227           N01649           N01650           184.391    0.0130   0 0 0 0
G01228           N01650           N00008           56.569     0.0130   0 0 0 0
G01229           N01651           N01650           240.832    0.0130   0 0 0 0
G01230           N01652           N01651           120.000    0.0130   0 0 0 0
G01231           N01653           N01952           100.000    0.0130   0 0 0 0
G01232           N01654           N01493           56.569     0.0130   0 0 0 0
G01233           N01655           N00692           121.655    0.0130   0 0 0 0
G01234           N01656           N00692           164.924    0.0130   0 0 0 0
G01235           N01657           N01656           80.000     0.0130   0 0 0 0
G01236           N01658           N01931           63.246     0.0130   0 0 0 0
G01237           N01659           N02485           89.443     0.0130   0 0 0 0
G01238           N01660           N02484           100.000    0.0130   0 0 0 0
G01239           N01661           N02607           72.111     0.0130   0 0 0 0
G01240           N01662           N01334           72.111     0.0130   0 0 0 0
G01241           N01663           N02618           72.111     0.0130   0 0 0 0
G01242           N01665           N02710           100.000    0.0130   0 0 0 0
G01243           N01666           N01288           160.000    0.0130   0 0 0 0
G01244           N01667           N01666           82.462     0.0130   0 0 0 0
G01245           N01668           N01667           160.000    0.0130   0 0 0 0
G01246           N01669           N01666           100.000    0.0130   0 0 0 0
G01247           N01677           N01101           63.246     0.0130   0 0 0 0
G01248           N01678           N01454           63.246     0.0130   0 0 0 0
G01249           N01681           N01537           84.853     0.0130   0 0 0 0
G01250           N01682           N00299           80.000     0.0130   0 0 0 0
G01251           N01683           N01688           20.000     0.0130   0 0 0 0
G01252           N01684           N01683           181.108    0.0130   0 0 0 0
G01253           N01686           N01685           200.000    0.0130   0 0 0 0
G01254           N01687           N01688           160.000    0.0130   0 0 0 0
G01255           N01688           N01685           40.000     0.0130   0 0 0 0
G01256           N01689           N01537           72.111     0.0130   0 0 0 0
G01257           N01690           N01119           80.000     0.0130   0 0 0 0
G01258           N01691           N02815           80.000     0.0130   0 0 0 0
G01259           N01692           N01691           200.998    0.0130   0 0 0 0
G01260           N01693           N01692           180.000    0.0130   0 0 0 0
G01261           N01694           N01120           100.000    0.0130   0 0 0 0
G01262           N01695           N01710           60.000     0.0130   0 0 0 0
G01263           N01696           N01694           120.000    0.0130   0 0 0 0
G01264           N01697           N01773           40.000     0.0130   0 0 0 0
G01265           N01698           N01697           220.000    0.0130   0 0 0 0
G01266           N01699           N01741           100.000    0.0130   0 0 0 0
G01267           N01700           N01699           180.000    0.0130   0 0 0 0
G01268           N01701           N02446           82.462     0.0130   0 0 0 0
G01269           N01702           N01707           40.000     0.0130   0 0 0 0
G01270           N01703           N01704           161.245    0.0130   0 0 0 0
G01271           N01704           N00285           72.111     0.0130   0 0 0 0
G01272           N01706           N01710           28.284     0.0130   0 0 0 0
G01273           N01707           N01706           141.421    0.0130   0 0 0 0
G01274           N01708           N01788           44.721     0.0130   0 0 0 0
G01275           N01709           N01120           80.000     0.0130   0 0 0 0
G01276           N01710           N01703           100.000    0.0130   0 0 0 0
G01277           N01711           N01713           141.421    0.0130   0 0 0 0
G01278           N01712           N01776           44.721     0.0130   0 0 0 0
G01279           N01713           N01575           100.000    0.0130   0 0 0 0
G01280           N01714           N01575           72.111     0.0130   0 0 0 0
G01281           N01715           N01575           72.111     0.0130   0 0 0 0
G01282           N01716           N01575           89.443     0.0130   0 0 0 0
G01283           N01717           N00909           100.000    0.0130   0 0 0 0
G01284           N01718           N01737           60.000     0.0130   0 0 0 0
G01285           N01719           N01716           82.462     0.0130   0 0 0 0
G01286           N01720           N01723           180.000    0.0130   0 0 0 0
G01287           N01721           N01720           240.832    0.0130   0 0 0 0
G01288           N01722           N01729           28.284     0.0130   0 0 0 0
G01289           N01723           N01691           60.000     0.0130   0 0 0 0
G01290           N01724           N01729           20.000     0.0130   0 0 0 0
G01291           N01725           N01773           44.721     0.0130   0 0 0 0
G01292           N01726           N01729           28.284     0.0130   0 0 0 0
G01293           N01727           N01771           40.000     0.0130   0 0 0 0
G01294           N01728           N01452           44.721     0.0130   0 0 0 0
G01295           N01729           N01728           161.245    0.0130   0 0 0 0
G01296           N01730           N01452           56.569     0.0130   0 0 0 0
G01297           N01731           N01575           60.000     0.0130   0 0 0 0
G01298           N01732           N01575           40.000     0.0130   0 0 0 0
G01299           N01733           N01773           20.000     0.0130   0 0 0 0
G01300           N01734           N01733           200.000    0.0130   0 0 0 0
G01301           N01735           N01711           44.721     0.0130   0 0 0 0
G01302           N01736           N01711           40.000     0.0130   0 0 0 0
G01303           N01737           N01723           160.000    0.0130   0 0 0 0
G01304           N01738           N02815           100.000    0.0130   0 0 0 0
G01305           N01739           N01741           60.000     0.0130   0 0 0 0
G01306           N01740           N01559           63.246     0.0130   0 0 0 0
G01307           N01741           N01742           181.108    0.0130   0 0 0 0
G01308           N01742           N02815           82.462     0.0130   0 0 0 0
G01309           N01743           N01746           200.998    0.0130   0 0 0 0
G01310           N01744           N00326           63.246     0.0130   0 0 0 0
G01311           N01745           N00328           100.000    0.0130   0 0 0 0
G01312           N01746           N01747           60.000     0.0130   0 0 0 0
G01313           N01747           N01748           145.602    0.0130   0 0 0 0
G01314           N01748           N01299           72.111     0.0130   0 0 0 0
G01315           N01749           N02620           100.000    0.0130   0 0 0 0
G01316           N01750           N01577           28.284     0.0130   0 0 0 0
G01317           N01751           N01752           161.245    0.0130   0 0 0 0
G01318           N01752           N00015           63.246     0.0130   0 0 0 0
G01319           N01753           N01751           20.000     0.0130   0 0 0 0
G01320           N01754           N01741           56.569     0.0130   0 0 0 0
G01321           N01755           N01500           89.443     0.0130   0 0 0 0
G01322           N01756           N01769           82.462     0.0130   0 0 0 0
G01323           N01757           N01790           20.000     0.0130   0 0 0 0
G01324           N01759           N01776           44.721     0.0130   0 0 0 0
G01325           N01760           N02620           89.443     0.0130   0 0 0 0
G01326           N01761           N00345           60.000     0.0130   0 0 0 0
G01327           N01762           N01029           20.000     0.0130   0 0 0 0
G01328           N01763           N01764           20.000     0.0130   0 0 0 0
G01329           N01764           N01765           140.000    0.0130   0 0 0 0
G01330           N01765           N01755           63.246     0.0130   0 0 0 0
G01331           N01766           N01741           40.000     0.0130   0 0 0 0
G01332           N01767           N01743           28.284     0.0130   0 0 0 0
G01333           N01768           N01500           82.462     0.0130   0 0 0 0
G01334           N01769           N01770           240.000    0.0130   0 0 0 0
G01335           N01770           N01293           100.000    0.0130   0 0 0 0
G01336           N01771           N01775           100.000    0.0130   0 0 0 0
G01337           N01772           N01293           82.462     0.0130   0 0 0 0
G01338           N01773           N01772           200.998    0.0130   0 0 0 0
G01339           N01774           N01293           63.246     0.0130   0 0 0 0
G01340           N01775           N01774           180.000    0.0130   0 0 0 0
G01341           N01777           N01780           82.462     0.0130   0 0 0 0
G01342           N01778           N01776           40.000     0.0130   0 0 0 0
G01343           N01779           N01776           60.000     0.0130   0 0 0 0
G01344           N01780           N01778           63.246     0.0130   0 0 0 0
G01345           N01781           N01776           89.443     0.0130   0 0 0 0
G01346           N01782           N01774           40.000     0.0130   0 0 0 0
G01347           N01783           N01776           63.246     0.0130   0 0 0 0
G01348           N01784           N01757           200.998    0.0130   0 0 0 0
G01349           N01785           N00284           80.000     0.0130   0 0 0 0
G01350           N01786           N01787           28.284     0.0130   0 0 0 0
G01351           N01787           N01757           181.108    0.0130   0 0 0 0
G01352           N01788           N01757           220.000    0.0130   0 0 0 0
G01353           N01790           N01686           28.284     0.0130   0 0 0 0
G01354           N01792           N00311           134.164    0.0130   0 0 0 0
G01355           N01793           N01996           60.000     0.0130   0 0 0 0
G01356           N01795           N01794           220.907    0.0130   0 0 0 0
G01357           N01796           N01793           56.569     0.0130   0 0 0 0
G01358           N01797           N00308           82.462     0.0130   0 0 0 0
G01359           N01798           N01800           82.462     0.0130   0 0 0 0
G01360           N01799           N01807           200.000    0.0130   0 0 0 0
G01361           N01800           N01799           28.284     0.0130   0 0 0 0
G01362           N01801           N01802           80.000     0.0130   0 0 0 0
G01363           N01802           N01792           60.000     0.0130   0 0 0 0
G01364           N01803           N01810           100.000    0.0130   0 0 0 0
G01365           N01804           N01803           160.000    0.0130   0 0 0 0
G01366           N01805           N01799           60.000     0.0130   0 0 0 0
G01367           N01806           N01440           100.000    0.0130   0 0 0 0
G01368           N01807           N01810           80.000     0.0130   0 0 0 0
G01369           N01808           N01795           44.721     0.0130   0 0 0 0
G01370           N01809           N01794           56.569     0.0130   0 0 0 0
G01371           N01810           N01795           40.000     0.0130   0 0 0 0
G01372           N01811           N01966           100.000    0.0130   0 0 0 0
G01373           N01812           N01802           100.000    0.0130   0 0 0 0
G01374           N01813           N01814           223.607    0.0130   0 0 0 0
G01375           N01814           N01808           100.000    0.0130   0 0 0 0
G01376           N01815           N01799           20.000     0.0130   0 0 0 0
G01377           N01816           N01440           80.000     0.0130   0 0 0 0
G01378           N01817           N01440           82.462     0.0130   0 0 0 0
G01379           N01818           N01894           89.443     0.0130   0 0 0 0
G01380           N01819           N01852           40.000     0.0130   0 0 0 0
G01381           N01820           N01441           56.569     0.0130   0 0 0 0
G01382           N01821           N01837           40.000     0.0130   0 0 0 0
G01383           N01822           N02614           44.721     0.0130   0 0 0 0
G01384           N01823           N01074           28.284     0.0130   0 0 0 0
G01385           N01824           N01823           320.000    0.0130   0 0 0 0
G01386           N01825           N01075           100.000    0.0130   0 0 0 0
G01387           N01826           N01994           63.246     0.0130   0 0 0 0
G01388           N01827           N01439           28.284     0.0130   0 0 0 0
G01389           N01830           N01822           220.000    0.0130   0 0 0 0
G01390           N01831           N02463           100.000    0.0130   0 0 0 0
G01391           N01832           N01429           20.000     0.0130   0 0 0 0
G01392           N01833           N02614           82.462     0.0130   0 0 0 0
G01393           N01834           N02476           56.569     0.0130   0 0 0 0
G01394           N01835           N01441           72.111     0.0130   0 0 0 0
G01395           N01836           N01844           72.111     0.0130   0 0 0 0
G01396           N01837           N01838           300.666    0.0130   0 0 0 0
G01397           N01838           N01839           141.421    0.0130   0 0 0 0
G01398           N01839           N01845           72.111     0.0130   0 0 0 0
G01399           N01840           N01429           100.000    0.0130   0 0 0 0
G01400           N01841           N01837           28.284     0.0130   0 0 0 0
G01401           N01842           N01420           40.000     0.0130   0 0 0 0
G01402           N01843           N01441           100.000    0.0130   0 0 0 0
G01403           N01844           N01441           63.246     0.0130   0 0 0 0
G01404           N01846           N01837           82.462     0.0130   0 0 0 0
G01405           N01847           N01858           101.980    0.0130   0 0 0 0
G01406           N01849           N02701           80.000     0.0130   0 0 0 0
G01407           N01850           N01851           180.000    0.0130   0 0 0 0
G01408           N01851           N01859           28.284     0.0130   0 0 0 0
G01409           N01852           N02463           82.462     0.0130   0 0 0 0
G01410           N01853           N01834           63.246     0.0130   0 0 0 0
G01411           N01854           N02476           100.000    0.0130   0 0 0 0
G01412           N01855           N02614           63.246     0.0130   0 0 0 0
G01413           N01856           N01833           82.462     0.0130   0 0 0 0
G01414           N01857           N02716           63.246     0.0130   0 0 0 0
G01415           N01858           N01859           44.721     0.0130   0 0 0 0
G01416           N01859           N01860           200.998    0.0130   0 0 0 0
G01417           N01860           N01866           80.000     0.0130   0 0 0 0
G01418           N01861           N01859           180.000    0.0130   0 0 0 0
G01419           N01862           N01866           40.000     0.0130   0 0 0 0
G01420           N01863           N01866           20.000     0.0130   0 0 0 0
G01421           N01864           N02753           56.569     0.0130   0 0 0 0
G01422           N01865           N01868           28.284     0.0130   0 0 0 0
G01423           N01866           N01865           180.000    0.0130   0 0 0 0
G01424           N01867           N00876           28.284     0.0130   0 0 0 0
G01425           N01869           N01868           100.000    0.0130   0 0 0 0
G01426           N01870           N00333           63.246     0.0130   0 0 0 0
G01427           N01871           N02213           82.462     0.0130   0 0 0 0
G01428           N01872           N01857           161.245    0.0130   0 0 0 0
G01429           N01873           N01542           63.246     0.0130   0 0 0 0
G01430           N01874           N00194           44.721     0.0130   0 0 0 0
G01431           N01876           N01066           100.000    0.0130   0 0 0 0
G01432           N01877           N01878           28.284     0.0130   0 0 0 0
G01433           N01879           N02822           72.111     0.0130   0 0 0 0
G01434           N01880           N02821           72.111     0.0130   0 0 0 0
G01435           N01881           N00826           234.094    0.0130   0 0 0 0
G01436           N01882           N00220           89.443     0.0130   0 0 0 0
G01437           N01883           N01877           240.000    0.0130   0 0 0 0
G01438           N01884           N01355           100.000    0.0130   0 0 0 0
G01439           N01885           N01066           82.462     0.0130   0 0 0 0
G01440           N01886           N01884           44.721     0.0130   0 0 0 0
G01441           N01887           N01967           89.443     0.0130   0 0 0 0
G01442           N01888           N01967           60.000     0.0130   0 0 0 0
G01443           N01889           N00276           80.000     0.0130   0 0 0 0
G01444           N01890           N01891           164.924    0.0130   0 0 0 0
G01445           N01891           N01989           100.000    0.0130   0 0 0 0
G01446           N01892           N01891           28.284     0.0130   0 0 0 0
G01447           N01893           N01890           63.246     0.0130   0 0 0 0
G01448           N01894           N01993           100.000    0.0130   0 0 0 0
G01449           N01895           N01581           28.284     0.0130   0 0 0 0
G01450           N01896           N01993           80.000     0.0130   0 0 0 0
G01451           N01897           N02022           82.462     0.0130   0 0 0 0
G01452           N01898           N02022           84.853     0.0130   0 0 0 0
G01453           N01899           N00831           141.421    0.0130   0 0 0 0
G01454           N01900           N01925           60.000     0.0130   0 0 0 0
G01455           N01901           N01900           161.245    0.0130   0 0 0 0
G01456           N01902           N01900           89.443     0.0130   0 0 0 0
G01457           N01903           N01935           63.246     0.0130   0 0 0 0
G01458           N01904           N01908           82.462     0.0130   0 0 0 0
G01459           N01905           N01935           100.000    0.0130   0 0 0 0
G01460           N01906           N01925           72.111     0.0130   0 0 0 0
G01461           N01907           N01900           82.462     0.0130   0 0 0 0
G01462           N01908           N01366           60.000     0.0130   0 0 0 0
G01463           N01910           N01341           56.569     0.0130   0 0 0 0
G01464           N01911           N00210           72.111     0.0130   0 0 0 0
G01465           N01912           N01911           466.905    0.0130   0 0 0 0
G01466           N01913           N02429           100.000    0.0130   0 0 0 0
G01467           N01914           N02787           84.853     0.0130   0 0 0 0
G01468           N01915           N01366           84.853     0.0130   0 0 0 0
G01469           N01916           N01915           362.215    0.0130   0 0 0 0
G01470           N01917           N01918           161.245    0.0130   0 0 0 0
G01471           N01918           N01367           56.569     0.0130   0 0 0 0
G01472           N01919           N01920           200.998    0.0130   0 0 0 0
G01473           N01920           N01367           63.246     0.0130   0 0 0 0
G01474           N01921           N01935           28.284     0.0130   0 0 0 0
G01475           N01922           N00679           44.721     0.0130   0 0 0 0
G01476           N01923           N01927           141.421    0.0130   0 0 0 0
G01477           N01924           N01899           28.284     0.0130   0 0 0 0
G01478           N01925           N01938           44.721     0.0130   0 0 0 0
G01479           N01926           N01930           60.000     0.0130   0 0 0 0
G01480           N01927           N01930           101.980    0.0130   0 0 0 0
G01481           N01928           N00178           63.246     0.0130   0 0 0 0
G01482           N01929           N00828           80.000     0.0130   0 0 0 0
G01483           N01931           N00202           80.000     0.0130   0 0 0 0
G01484           N01932           N00692           82.462     0.0130   0 0 0 0
G01485           N01933           N00209           40.000     0.0130   0 0 0 0
G01486           N01934           N02518           101.980    0.0130   0 0 0 0
G01487           N01935           N02425           220.907    0.0130   0 0 0 0
G01488           N01936           N02052           63.246     0.0130   0 0 0 0
G01489           N01937           N01935           60.000     0.0130   0 0 0 0
G01490           N01938           N01939           126.491    0.0130   0 0 0 0
G01491           N01939           N01962           141.421    0.0130   0 0 0 0
G01492           N01940           N02708           80.000     0.0130   0 0 0 0
G01493           N01941           N01947           80.000     0.0130   0 0 0 0
G01494           N01942           N01270           40.000     0.0130   0 0 0 0
G01495           N01943           N01942           160.000    0.0130   0 0 0 0
G01496           N01945           N01944           223.607    0.0130   0 0 0 0
G01497           N01946           N02707           44.721     0.0130   0 0 0 0
G01498           N01947           N01269           164.924    0.0130   0 0 0 0
G01499           N01948           N01945           20.000     0.0130   0 0 0 0
G01500           N01949           N01940           82.462     0.0130   0 0 0 0
G01501           N01950           N01269           180.000    0.0130   0 0 0 0
G01502           N01951           N01269           141.421    0.0130   0 0 0 0
G01503           N01952           N01951           141.421    0.0130   0 0 0 0
G01504           N01953           N01951           181.108    0.0130   0 0 0 0
G01505           N01954           N01466           82.462     0.0130   0 0 0 0
G01506           N01955           N00794           120.000    0.0130   0 0 0 0
G01507           N01956           N02146           20.000     0.0130   0 0 0 0
G01508           N01957           N01259           100.000    0.0130   0 0 0 0
G01509           N01958           N01973           72.111     0.0130   0 0 0 0
G01510           N01959           N01974           63.246     0.0130   0 0 0 0
G01511           N01960           N01959           260.768    0.0130   0 0 0 0
G01512           N01961           N01256           63.246     0.0130   0 0 0 0
G01513           N01962           N02425           82.462     0.0130   0 0 0 0
G01514           N01963           N01964           180.000    0.0130   0 0 0 0
G01515           N01964           N01938           84.853     0.0130   0 0 0 0
G01516           N01965           N00688           80.000     0.0130   0 0 0 0
G01517           N01966           N01967           44.721     0.0130   0 0 0 0
G01518           N01967           N01968           181.108    0.0130   0 0 0 0
G01519           N01968           N01999           120.000    0.0130   0 0 0 0
G01520           N01969           N01965           100.000    0.0130   0 0 0 0
G01521           N01970           N02052           44.721     0.0130   0 0 0 0
G01522           N01971           N01967           20.000     0.0130   0 0 0 0
G01523           N01972           N01974           20.000     0.0130   0 0 0 0
G01524           N01973           N00681           184.391    0.0130   0 0 0 0
G01525           N01974           N01975           170.880    0.0130   0 0 0 0
G01526           N01975           N00681           20.000     0.0130   0 0 0 0
G01527           N01977           N02044           44.721     0.0130   0 0 0 0
G01528           N01982           N00515           60.000     0.0130   0 0 0 0
G01529           N01984           N02044           28.284     0.0130   0 0 0 0
G01530           N01987           N01991           20.000     0.0130   0 0 0 0
G01531           N01988           N02003           160.000    0.0130   0 0 0 0
G01532           N01989           N01988           44.721     0.0130   0 0 0 0
G01533           N01991           N02008           141.421    0.0130   0 0 0 0
G01534           N01992           N01988           63.246     0.0130   0 0 0 0
G01535           N01993           N02002           82.462     0.0130   0 0 0 0
G01536           N01994           N01993           44.721     0.0130   0 0 0 0
G01537           N01995           N01998           80.000     0.0130   0 0 0 0
G01538           N01996           N00678           140.000    0.0130   0 0 0 0
G01539           N01997           N01998           28.284     0.0130   0 0 0 0
G01540           N01998           N01999           126.491    0.0130   0 0 0 0
G01541           N02000           N01993           223.607    0.0130   0 0 0 0
G01542           N02001           N02000           20.000     0.0130   0 0 0 0
G01543           N02003           N02001           28.284     0.0130   0 0 0 0
G01544           N02004           N02825           107.703    0.0130   0 0 0 0
G01545           N02005           N01987           160.000    0.0130   0 0 0 0
G01546           N02006           N01071           63.246     0.0130   0 0 0 0
G01547           N02007           N01824           84.853     0.0130   0 0 0 0
G01548           N02008           N02009           181.108    0.0130   0 0 0 0
G01549           N02010           N01987           121.655    0.0130   0 0 0 0
G01550           N02013           N01280           141.421    0.0130   0 0 0 0
G01551           N02014           N02007           120.000    0.0130   0 0 0 0
G01552           N02015           N02047           20.000     0.0130   0 0 0 0
G01553           N02016           N01991           121.655    0.0130   0 0 0 0
G01554           N02017           N02020           160.000    0.0130   0 0 0 0
G01555           N02018           N01003           72.111     0.0130   0 0 0 0
G01556           N02019           N02018           197.990    0.0130   0 0 0 0
G01557           N02020           N02004           44.721     0.0130   0 0 0 0
G01558           N02021           N02004           84.853     0.0130   0 0 0 0
G01559           N02022           N02017           56.569     0.0130   0 0 0 0
G01560           N02023           N00551           28.284     0.0130   0 0 0 0
G01561           N02024           N00501           89.443     0.0130   0 0 0 0
G01562           N02025           N02028           56.569     0.0130   0 0 0 0
G01563           N02026           N02029           116.619    0.0130   0 0 0 0
G01564           N02027           N02047           63.246     0.0130   0 0 0 0
G01565           N02028           N02034           84.853     0.0130   0 0 0 0
G01566           N02029           N02028           72.111     0.0130   0 0 0 0
G01567           N02032           N01259           212.603    0.0130   0 0 0 0
G01568           N02033           N01259           80.000     0.0130   0 0 0 0
G01569           N02034           N02033           56.569     0.0130   0 0 0 0
G01570           N02035           N02047           44.721     0.0130   0 0 0 0
G01571           N02036           N02026           63.246     0.0130   0 0 0 0
G01572           N02044           N02048           144.222    0.0130   0 0 0 0
G01573           N02046           N02004           63.246     0.0130   0 0 0 0
G01574           N02047           N02046           200.998    0.0130   0 0 0 0
G01575           N02048           N01265           100.000    0.0130   0 0 0 0
G01576           N02049           N02050           170.880    0.0130   0 0 0 0
G01577           N02050           N00321           28.284     0.0130   0 0 0 0
G01578           N02052           N01286           60.000     0.0130   0 0 0 0
G01579           N02053           N01560           28.284     0.0130   0 0 0 0
G01580           N02054           N00681           28.284     0.0130   0 0 0 0
G01581           N02055           N00681           20.000     0.0130   0 0 0 0
G01582           N02056           N02787           56.569     0.0130   0 0 0 0
G01583           N02057           N02071           100.000    0.0130   0 0 0 0
G01584           N02058           N02057           164.924    0.0130   0 0 0 0
G01585           N02059           N02060           367.151    0.0130   0 0 0 0
G01586           N02060           N02066           100.000    0.0130   0 0 0 0
G01587           N02061           N02060           250.599    0.0130   0 0 0 0
G01588           N02062           N02058           56.569     0.0130   0 0 0 0
G01589           N02063           N02058           44.721     0.0130   0 0 0 0
G01590           N02064           N02070           82.462     0.0130   0 0 0 0
G01591           N02065           N02069           63.246     0.0130   0 0 0 0
G01592           N02066           N02065           156.205    0.0130   0 0 0 0
G01593           N02067           N02066           72.111     0.0130   0 0 0 0
G01594           N02068           N02069           188.680    0.0130   0 0 0 0
G01595           N02070           N02069           128.062    0.0130   0 0 0 0
G01596           N02071           N02077           161.245    0.0130   0 0 0 0
G01597           N02072           N02073           161.245    0.0130   0 0 0 0
G01598           N02073           N02678           44.721     0.0130   0 0 0 0
G01599           N02074           N02687           72.111     0.0130   0 0 0 0
G01600           N02075           N02676           84.853     0.0130   0 0 0 0
G01601           N02076           N02676           40.000     0.0130   0 0 0 0
G01602           N02077           N02676           82.462     0.0130   0 0 0 0
G01603           N02078           N02076           82.462     0.0130   0 0 0 0
G01604           N02079           N01042           164.924    0.0130   0 0 0 0
G01605           N02080           N02079           164.924    0.0130   0 0 0 0
G01606           N02081           N02082           181.108    0.0130   0 0 0 0
G01607           N02082           N02083           120.000    0.0130   0 0 0 0
G01608           N02083           N01454           72.111     0.0130   0 0 0 0
G01609           N02084           N00879           63.246     0.0130   0 0 0 0
G01610           N02085           N01454           84.853     0.0130   0 0 0 0
G01611           N02086           N01454           44.721     0.0130   0 0 0 0
G01612           N02087           N01454           60.000     0.0130   0 0 0 0
G01613           N02088           N01454           84.853     0.0130   0 0 0 0
G01614           N02090           N02088           161.245    0.0130   0 0 0 0
G01615           N02091           N02096           100.000    0.0130   0 0 0 0
G01616           N02092           N02094           100.000    0.0130   0 0 0 0
G01617           N02093           N02095           63.246     0.0130   0 0 0 0
G01618           N02094           N00615           121.655    0.0130   0 0 0 0
G01619           N02095           N02094           60.000     0.0130   0 0 0 0
G01620           N02096           N02103           63.246     0.0130   0 0 0 0
G01621           N02097           N02098           240.000    0.0130   0 0 0 0
G01622           N02098           N02100           44.721     0.0130   0 0 0 0
G01623           N02099           N02101           44.721     0.0130   0 0 0 0
G01624           N02100           N00600           161.245    0.0130   0 0 0 0
G01625           N02101           N02100           40.000     0.0130   0 0 0 0
G01626           N02102           N02103           60.000     0.0130   0 0 0 0
G01627           N02103           N02101           220.000    0.0130   0 0 0 0
G01628           N02104           N02103           72.111     0.0130   0 0 0 0
G01629           N02105           N02104           44.721     0.0130   0 0 0 0
G01630           N02106           N02102           63.246     0.0130   0 0 0 0
G01631           N02107           N02103           100.000    0.0130   0 0 0 0
G01632           N02108           N00317           44.721     0.0130   0 0 0 0
G01633           N02109           N02711           80.000     0.0130   0 0 0 0
G01634           N02110           N02711           40.000     0.0130   0 0 0 0
G01635           N02111           N02114           460.000    0.0130   0 0 0 0
G01636           N02112           N01289           44.721     0.0130   0 0 0 0
G01637           N02113           N01550           40.000     0.0130   0 0 0 0
G01638           N02114           N02710           80.000     0.0130   0 0 0 0
G01639           N02115           N02135           44.721     0.0130   0 0 0 0
G01640           N02116           N02135           80.000     0.0130   0 0 0 0
G01641           N02117           N02124           72.111     0.0130   0 0 0 0
G01642           N02118           N02134           44.721     0.0130   0 0 0 0
G01643           N02119           N02124           28.284     0.0130   0 0 0 0
G01644           N02120           N02121           400.500    0.0130   0 0 0 0
G01645           N02121           N02725           40.000     0.0130   0 0 0 0
G01646           N02122           N00547           100.000    0.0130   0 0 0 0
G01647           N02123           N02124           100.000    0.0130   0 0 0 0
G01648           N02124           N02125           260.000    0.0130   0 0 0 0
G01649           N02125           N02140           40.000     0.0130   0 0 0 0
G01650           N02126           N02140           82.462     0.0130   0 0 0 0
G01651           N02127           N02120           63.246     0.0130   0 0 0 0
G01652           N02128           N02120           60.000     0.0130   0 0 0 0
G01653           N02129           N02141           56.569     0.0130   0 0 0 0
G01654           N02130           N02158           63.246     0.0130   0 0 0 0
G01655           N02131           N00954           20.000     0.0130   0 0 0 0
G01656           N02132           N01208           80.000     0.0130   0 0 0 0
G01657           N02133           N02120           82.462     0.0130   0 0 0 0
G01658           N02134           N02140           60.000     0.0130   0 0 0 0
G01659           N02135           N02134           240.000    0.0130   0 0 0 0
G01660           N02136           N02135           28.284     0.0130   0 0 0 0
G01661           N02137           N02134           80.000     0.0130   0 0 0 0
G01662           N02138           N01379           141.421    0.0130   0 0 0 0
G01663           N02140           N02139           181.108    0.0130   0 0 0 0
G01664           N02141           N01208           60.000     0.0130   0 0 0 0
G01665           N02143           N00954           28.284     0.0130   0 0 0 0
G01666           N02144           N00954           60.000     0.0130   0 0 0 0
G01667           N02145           N00198           63.246     0.0130   0 0 0 0
G01668           N02146           N02145           134.164    0.0130   0 0 0 0
G01669           N02147           N00198           60.000     0.0130   0 0 0 0
G01670           N02148           N00198           100.000    0.0130   0 0 0 0
G01671           N02149           N01949           82.462     0.0130   0 0 0 0
G01672           N02156           N00537           89.443     0.0130   0 0 0 0
G01673           N02157           N02161           203.961    0.0130   0 0 0 0
G01674           N02158           N02159           200.000    0.0130   0 0 0 0
G01675           N02159           N02160           120.000    0.0130   0 0 0 0
G01676           N02160           N01206           82.462     0.0130   0 0 0 0
G01677           N02161           N02160           200.000    0.0130   0 0 0 0
G01678           N02162           N02164           56.569     0.0130   0 0 0 0
G01679           N02163           N02164           89.443     0.0130   0 0 0 0
G01680           N02164           N00530           72.111     0.0130   0 0 0 0
G01681           N02166           N02167           100.000    0.0130   0 0 0 0
G01682           N02167           N02164           100.000    0.0130   0 0 0 0
G01683           N02168           N02163           20.000     0.0130   0 0 0 0
G01684           N02169           N02157           60.000     0.0130   0 0 0 0
G01685           N02170           N00530           28.284     0.0130   0 0 0 0
G01686           N02171           N00745           63.246     0.0130   0 0 0 0
G01687           N02172           N00045           82.462     0.0130   0 0 0 0
G01688           N02173           N01693           181.108    0.0130   0 0 0 0
G01689           N02174           N00959           80.000     0.0130   0 0 0 0
G01690           N02175           N00660           40.000     0.0130   0 0 0 0
G01691           N02176           N00177           72.111     0.0130   0 0 0 0
G01692           N02177           N00959           60.000     0.0130   0 0 0 0
G01693           N02178           N02181           60.000     0.0130   0 0 0 0
G01694           N02179           N02178           84.853     0.0130   0 0 0 0
G01695           N02182           N01387           89.443     0.0130   0 0 0 0
G01696           N02187           N02188           161.245    0.0130   0 0 0 0
G01697           N02188           N02192           172.047    0.0130   0 0 0 0
G01698           N02191           N02188           200.000    0.0130   0 0 0 0
G01699           N02196           N02199           28.284     0.0130   0 0 0 0
G01700           N02199           N01481           89.443     0.0130   0 0 0 0
G01701           N02204           N02199           84.853     0.0130   0 0 0 0
G01702           N02208           N02209           184.391    0.0130   0 0 0 0
G01703           N02209           N01035           63.246     0.0130   0 0 0 0
G01704           N02210           N00287           72.111     0.0130   0 0 0 0
G01705           N02211           N00335           28.284     0.0130   0 0 0 0
G01706           N02212           N02717           28.284     0.0130   0 0 0 0
G01707           N02213           N00337           63.246     0.0130   0 0 0 0
G01708           N02214           N02215           170.880    0.0130   0 0 0 0
G01709           N02216           N02215           113.137    0.0130   0 0 0 0
G01710           N02219           N02409           89.443     0.0130   0 0 0 0
G01711           N02231           N02236           60.000     0.0130   0 0 0 0
G01712           N02232           N02238           28.284     0.0130   0 0 0 0
G01713           N02236           N02214           152.315    0.0130   0 0 0 0
G01714           N02237           N02236           60.000     0.0130   0 0 0 0
G01715           N02238           N02236           44.721     0.0130   0 0 0 0
G01716           N02239           N02236           63.246     0.0130   0 0 0 0
G01717           N02240           N02239           134.164    0.0130   0 0 0 0
G01718           N02241           N02236           63.246     0.0130   0 0 0 0
G01719           N02242           N02245           28.284     0.0130   0 0 0 0
G01720           N02243           N02242           234.094    0.0130   0 0 0 0
G01721           N02244           N02243           28.284     0.0130   0 0 0 0
G01722           N02245           N02253           170.880    0.0130   0 0 0 0
G01723           N02246           N02245           161.245    0.0130   0 0 0 0
G01724           N02247           N02251           20.000     0.0130   0 0 0 0
G01725           N02248           N02251           170.880    0.0130   0 0 0 0
G01726           N02249           N02261           82.462     0.0130   0 0 0 0
G01727           N02250           N02251           161.245    0.0130   0 0 0 0
G01728           N02251           N02252           181.108    0.0130   0 0 0 0
G01729           N02252           N02246           101.980    0.0130   0 0 0 0
G01730           N02254           N02259           56.569     0.0130   0 0 0 0
G01731           N02256           N02251           28.284     0.0130   0 0 0 0
G01732           N02258           N02261           80.000     0.0130   0 0 0 0
G01733           N02259           N02262           44.721     0.0130   0 0 0 0
G01734           N02260           N00514           63.246     0.0130   0 0 0 0
G01735           N02261           N02260           141.421    0.0130   0 0 0 0
G01736           N02262           N02263           286.356    0.0130   0 0 0 0
G01737           N02263           N02242           20.000     0.0130   0 0 0 0
G01738           N02264           N02260           80.000     0.0130   0 0 0 0
G01739           N02266           N02271           161.245    0.0130   0 0 0 0
G01740           N02267           N02830           63.246     0.0130   0 0 0 0
G01741           N02268           N02552           82.462     0.0130   0 0 0 0
G01742           N02269           N02270           107.703    0.0130   0 0 0 0
G01743           N02270           N02303           100.000    0.0130   0 0 0 0
G01744           N02271           N02830           44.721     0.0130   0 0 0 0
G01745           N02272           N02830           82.462     0.0130   0 0 0 0
G01746           N02273           N00946           101.980    0.0130   0 0 0 0
G01747           N02274           N02830           82.462     0.0130   0 0 0 0
G01748           N02275           N02566           140.000    0.0130   0 0 0 0
G01749           N02276           N02275           160.000    0.0130   0 0 0 0
G01750           N02277           N02278           121.655    0.0130   0 0 0 0
G01751           N02278           N00035           82.462     0.0130   0 0 0 0
G01752           N02279           N00035           63.246     0.0130   0 0 0 0
G01753           N02280           N00852           82.462     0.0130   0 0 0 0
G01754           N02281           N02289           80.000     0.0130   0 0 0 0
G01755           N02282           N02287           28.284     0.0130   0 0 0 0
G01756           N02283           N02284           134.164    0.0130   0 0 0 0
G01757           N02284           N00852           80.000     0.0130   0 0 0 0
G01758           N02285           N01325           63.246     0.0130   0 0 0 0
G01759           N02286           N02285           89.443     0.0130   0 0 0 0
G01760           N02287           N01325           89.443     0.0130   0 0 0 0
G01761           N02288           N02297           20.000     0.0130   0 0 0 0
G01762           N02290           N02289           72.111     0.0130   0 0 0 0
G01763           N02291           N01504           84.853     0.0130   0 0 0 0
G01764           N02292           N01214           160.000    0.0130   0 0 0 0
G01765           N02293           N01215           100.000    0.0130   0 0 0 0
G01766           N02294           N02293           141.421    0.0130   0 0 0 0
G01767           N02296           N02297           160.000    0.0130   0 0 0 0
G01768           N02297           N02289           40.000     0.0130   0 0 0 0
G01769           N02298           N02281           120.000    0.0130   0 0 0 0
G01770           N02299           N02298           260.000    0.0130   0 0 0 0
G01771           N02300           N02289           44.721     0.0130   0 0 0 0
G01772           N02301           N02300           180.000    0.0130   0 0 0 0
G01773           N02302           N02303           80.000     0.0130   0 0 0 0
G01774           N02303           N02296           82.462     0.0130   0 0 0 0
G01775           N02304           N00024           44.721     0.0130   0 0 0 0
G01776           N02305           N02307           116.619    0.0130   0 0 0 0
G01777           N02306           N02308           60.000     0.0130   0 0 0 0
G01778           N02307           N02309           116.619    0.0130   0 0 0 0
G01779           N02308           N02305           63.246     0.0130   0 0 0 0
G01780           N02309           N01213           141.421    0.0130   0 0 0 0
G01781           N02310           N02302           28.284     0.0130   0 0 0 0
G01782           N02311           N02603           60.000     0.0130   0 0 0 0
G01783           N02312           N00381           82.462     0.0130   0 0 0 0
G01784           N02313           N02312           161.245    0.0130   0 0 0 0
G01785           N02314           N00016           120.000    0.0130   0 0 0 0
G01786           N02315           N01744           82.462     0.0130   0 0 0 0
G01787           N02316           N01747           44.721     0.0130   0 0 0 0
G01788           N02317           N00381           89.443     0.0130   0 0 0 0
G01789           N02318           N00394           44.721     0.0130   0 0 0 0
G01790           N02319           N00014           28.284     0.0130   0 0 0 0
G01791           N02325           N01384           28.284     0.0130   0 0 0 0
G01792           N02326           N00084           40.000     0.0130   0 0 0 0
G01793           N02327           N02332           208.806    0.0130   0 0 0 0
G01794           N02328           N02326           164.924    0.0130   0 0 0 0
G01795           N02329           N02328           161.245    0.0130   0 0 0 0
G01796           N02330           N00400           100.000    0.0130   0 0 0 0
G01797           N02331           N00894           101.980    0.0130   0 0 0 0
G01798           N02332           N02331           144.222    0.0130   0 0 0 0
G01799           N02345           N00405           140.000    0.0130   0 0 0 0
G01800           N02351           N02355           82.462     0.0130   0 0 0 0
G01801           N02352           N01618           72.111     0.0130   0 0 0 0
G01802           N02354           N01618           89.443     0.0130   0 0 0 0
G01803           N02355           N02356           220.907    0.0130   0 0 0 0
G01804           N02364           N02365           164.924    0.0130   0 0 0 0
G01805           N02365           N01404           20.000     0.0130   0 0 0 0
G01806           N02366           N02367           184.391    0.0130   0 0 0 0
G01807           N02368           N02366           63.246     0.0130   0 0 0 0
G01808           N02369           N02367           44.721     0.0130   0 0 0 0
G01809           N02370           N02369           100.000    0.0130   0 0 0 0
G01810           N02371           N01404           60.000     0.0130   0 0 0 0
G01811           N02372           N02364           200.998    0.0130   0 0 0 0
G01812           N02373           N02366           56.569     0.0130   0 0 0 0
G01813           N02374           N01080           60.000     0.0130   0 0 0 0
G01814           N02375           N02374           160.000    0.0130   0 0 0 0
G01815           N02376           N02366           28.284     0.0130   0 0 0 0
G01816           N02377           N02367           40.000     0.0130   0 0 0 0
G01817           N02378           N02370           40.000     0.0130   0 0 0 0
G01818           N02379           N02366           40.000     0.0130   0 0 0 0
G01819           N02381           N02191           28.284     0.0130   0 0 0 0
G01820           N02382           N01947           63.246     0.0130   0 0 0 0
G01821           N02383           N02191           63.246     0.0130   0 0 0 0
G01822           N02384           N02191           72.111     0.0130   0 0 0 0
G01823           N02385           N02384           241.661    0.0130   0 0 0 0
G01824           N02388           N02605           82.462     0.0130   0 0 0 0
G01825           N02389           N01481           89.443     0.0130   0 0 0 0
G01826           N02390           N01480           44.721     0.0130   0 0 0 0
G01827           N02391           N02390           40.000     0.0130   0 0 0 0
G01828           N02392           N01480           63.246     0.0130   0 0 0 0
G01829           N02406           N02781           63.246     0.0130   0 0 0 0
G01830           N02407           N01093           40.000     0.0130   0 0 0 0
G01831           N02408           N02410           181.108    0.0130   0 0 0 0
G01832           N02409           N02831           161.245    0.0130   0 0 0 0
G01833           N02410           N02721           100.000    0.0130   0 0 0 0
G01834           N02411           N01147           44.721     0.0130   0 0 0 0
G01835           N02412           N01147           89.443     0.0130   0 0 0 0
G01836           N02413           N01147           82.462     0.0130   0 0 0 0
G01837           N02414           N02413           282.843    0.0130   0 0 0 0
G01838           N02415           N02414           82.462     0.0130   0 0 0 0
G01839           N02416           N00929           89.443     0.0130   0 0 0 0
G01840           N02417           N00929           82.462     0.0130   0 0 0 0
G01841           N02418           N00929           28.284     0.0130   0 0 0 0
G01842           N02424           N01935           20.000     0.0130   0 0 0 0
G01843           N02425           N01286           80.000     0.0130   0 0 0 0
G01844           N02426           N01397           28.284     0.0130   0 0 0 0
G01845           N02427           N00090           40.000     0.0130   0 0 0 0
G01846           N02428           N02802           72.111     0.0130   0 0 0 0
G01847           N02429           N02056           56.569     0.0130   0 0 0 0
G01848           N02430           N02028           84.853     0.0130   0 0 0 0
G01849           N02432           N02433           121.655    0.0130   0 0 0 0
G01850           N02433           N00648           82.462     0.0130   0 0 0 0
G01851           N02434           N00634           82.462     0.0130   0 0 0 0
G01852           N02435           N00090           89.443     0.0130   0 0 0 0
G01853           N02436           N02437           141.421    0.0130   0 0 0 0
G01854           N02437           N02438           240.832    0.0130   0 0 0 0
G01855           N02439           N02440           141.421    0.0130   0 0 0 0
G01856           N02440           N00724           72.111     0.0130   0 0 0 0
G01857           N02441           N01547           89.443     0.0130   0 0 0 0
G01858           N02442           N02603           40.000     0.0130   0 0 0 0
G01859           N02443           N02444           100.000    0.0130   0 0 0 0
G01860           N02444           N02818           44.721     0.0130   0 0 0 0
G01861           N02445           N02819           40.000     0.0130   0 0 0 0
G01862           N02446           N02769           40.000     0.0130   0 0 0 0
G01863           N02447           N02448           160.000    0.0130   0 0 0 0
G01864           N02448           N02449           220.000    0.0130   0 0 0 0
G01865           N02449           N02450           100.000    0.0130   0 0 0 0
G01866           N02450           N02725           63.246     0.0130   0 0 0 0
G01867           N02454           N01709           100.000    0.0130   0 0 0 0
G01868           N02457           N00863           56.569     0.0130   0 0 0 0
G01869           N02458           N02292           160.000    0.0130   0 0 0 0
G01870           N02461           N00543           28.284     0.0130   0 0 0 0
G01871           N02462           N02464           72.111     0.0130   0 0 0 0
G01872           N02463           N02462           300.000    0.0130   0 0 0 0
G01873           N02464           N02791           89.443     0.0130   0 0 0 0
G01874           N02465           N02461           152.315    0.0130   0 0 0 0
G01875           N02466           N02791           89.443     0.0130   0 0 0 0
G01876           N02467           N02470           28.284     0.0130   0 0 0 0
G01877           N02468           N02466           56.569     0.0130   0 0 0 0
G01878           N02469           N02470           44.721     0.0130   0 0 0 0
G01879           N02470           N02791           82.462     0.0130   0 0 0 0
G01880           N02471           N02141           63.246     0.0130   0 0 0 0
G01881           N02472           N02141           80.000     0.0130   0 0 0 0
G01882           N02473           N01274           100.000    0.0130   0 0 0 0
G01883           N02474           N00169           44.721     0.0130   0 0 0 0
G01884           N02475           N00182           82.462     0.0130   0 0 0 0
G01885           N02476           N01863           141.421    0.0130   0 0 0 0
G01886           N02484           N02705           101.980    0.0130   0 0 0 0
G01887           N02485           N01273           89.443     0.0130   0 0 0 0
G01888           N02486           N01272           72.111     0.0130   0 0 0 0
G01889           N02487           N01272           56.569     0.0130   0 0 0 0
G01890           N02488           N02376           89.443     0.0130   0 0 0 0
G01891           N02489           N01080           40.000     0.0130   0 0 0 0
G01892           N02490           N02489           60.000     0.0130   0 0 0 0
G01893           N02491           N00236           184.391    0.0130   0 0 0 0
G01894           N02493           N01544           72.111     0.0130   0 0 0 0
G01895           N02494           N02493           172.047    0.0130   0 0 0 0
G01896           N02495           N00233           80.000     0.0130   0 0 0 0
G01897           N02496           N00140           40.000     0.0130   0 0 0 0
G01898           N02497           N02498           160.000    0.0130   0 0 0 0
G01899           N02498           N01866           44.721     0.0130   0 0 0 0
G01900           N02499           N00338           82.462     0.0130   0 0 0 0
G01901           N02500           N02332           72.111     0.0130   0 0 0 0
G01902           N02501           N00084           44.721     0.0130   0 0 0 0
G01903           N02502           N00857           100.000    0.0130   0 0 0 0
G01904           N02503           N01001           28.284     0.0130   0 0 0 0
G01905           N02504           N01007           44.721     0.0130   0 0 0 0
G01906           N02505           N00033           56.569     0.0130   0 0 0 0
G01907           N02506           N00575           44.721     0.0130   0 0 0 0
G01908           N02507           N00590           40.000     0.0130   0 0 0 0
G01909           N02508           N00596           60.000     0.0130   0 0 0 0
G01910           N02509           N01535           63.246     0.0130   0 0 0 0
G01911           N02510           N00591           40.000     0.0130   0 0 0 0
G01912           N02511           N01565           40.000     0.0130   0 0 0 0
G01913           N02512           N00590           44.721     0.0130   0 0 0 0
G01914           N02513           N01069           82.462     0.0130   0 0 0 0
G01915           N02514           N01069           82.462     0.0130   0 0 0 0
G01916           N02515           N02514           220.907    0.0130   0 0 0 0
G01917           N02517           N02145           63.246     0.0130   0 0 0 0
G01918           N02518           N02708           100.000    0.0130   0 0 0 0
G01919           N02519           N02785           89.443     0.0130   0 0 0 0
G01920           N02520           N00163           82.462     0.0130   0 0 0 0
G01921           N02521           N01306           100.000    0.0130   0 0 0 0
G01922           N02522           N01305           63.246     0.0130   0 0 0 0
G01923           N02523           N00619           63.246     0.0130   0 0 0 0
G01924           N02524           N01307           28.284     0.0130   0 0 0 0
G01925           N02526           N01602           44.721     0.0130   0 0 0 0
G01926           N02527           N00604           72.111     0.0130   0 0 0 0
G01927           N02528           N00604           100.000    0.0130   0 0 0 0
G01928           N02529           N02527           72.111     0.0130   0 0 0 0
G01929           N02530           N02529           56.569     0.0130   0 0 0 0
G01930           N02531           N02535           60.000     0.0130   0 0 0 0
G01931           N02532           N02535           40.000     0.0130   0 0 0 0
G01932           N02533           N00779           82.462     0.0130   0 0 0 0
G01933           N02534           N02533           28.284     0.0130   0 0 0 0
G01934           N02535           N02537           145.602    0.0130   0 0 0 0
G01935           N02536           N02535           56.569     0.0130   0 0 0 0
G01936           N02537           N02533           161.245    0.0130   0 0 0 0
G01937           N02538           N02535           56.569     0.0130   0 0 0 0
G01938           N02539           N02540           128.062    0.0130   0 0 0 0
G01939           N02540           N00832           63.246     0.0130   0 0 0 0
G01940           N02541           N00832           156.205    0.0130   0 0 0 0
G01941           N02542           N02549           82.462     0.0130   0 0 0 0
G01942           N02543           N02545           181.108    0.0130   0 0 0 0
G01943           N02544           N02543           140.000    0.0130   0 0 0 0
G01944           N02546           N01090           56.569     0.0130   0 0 0 0
G01945           N02547           N00076           220.000    0.0130   0 0 0 0
G01946           N02548           N02543           223.607    0.0130   0 0 0 0
G01947           N02549           N02548           40.000     0.0130   0 0 0 0
G01948           N02550           N00774           100.000    0.0130   0 0 0 0
G01949           N02551           N02550           44.721     0.0130   0 0 0 0
G01950           N02552           N02550           28.284     0.0130   0 0 0 0
G01951           N02553           N02550           28.284     0.0130   0 0 0 0
G01952           N02555           N02542           40.000     0.0130   0 0 0 0
G01953           N02556           N02557           220.907    0.0130   0 0 0 0
G01954           N02558           N00833           28.284     0.0130   0 0 0 0
G01955           N02563           N00619           80.000     0.0130   0 0 0 0
G01956           N02564           N02565           161.245    0.0130   0 0 0 0
G01957           N02565           N00339           20.000     0.0130   0 0 0 0
G01958           N02566           N02280           100.000    0.0130   0 0 0 0
G01959           N02567           N02299           72.111     0.0130   0 0 0 0
G01960           N02568           N02547           82.462     0.0130   0 0 0 0
G01961           N02569           N02298           40.000     0.0130   0 0 0 0
G01962           N02570           N02286           141.421    0.0130   0 0 0 0
G01963           N02575           N02494           100.000    0.0130   0 0 0 0
G01964           N02576           N02388           205.913    0.0130   0 0 0 0
G01965           N02582           N01513           134.164    0.0130   0 0 0 0
G01966           N02583           N02804           28.284     0.0130   0 0 0 0
G01967           N02584           N02585           144.222    0.0130   0 0 0 0
G01968           N02585           N01524           44.721     0.0130   0 0 0 0
G01969           N02586           N00531           63.246     0.0130   0 0 0 0
G01970           N02587           N00769           121.655    0.0130   0 0 0 0
G01971           N02588           N02590           40.000     0.0130   0 0 0 0
G01972           N02589           N02590           200.000    0.0130   0 0 0 0
G01973           N02590           N02507           80.000     0.0130   0 0 0 0
G01974           N02594           N02595           63.246     0.0130   0 0 0 0
G01975           N02595           N00911           82.462     0.0130   0 0 0 0
G01976           N02596           N00911           82.462     0.0130   0 0 0 0
G01977           N02599           N00926           56.569     0.0130   0 0 0 0
G01978           N02603           N02818           100.000    0.0130   0 0 0 0
G01979           N02604           N02714           40.000     0.0130   0 0 0 0
G01980           N02605           N02611           100.000    0.0130   0 0 0 0
G01981           N02606           N01476           44.721     0.0130   0 0 0 0
G01982           N02607           N01481           100.000    0.0130   0 0 0 0
G01983           N02609           N01481           63.246     0.0130   0 0 0 0
G01984           N02610           N01476           60.000     0.0130   0 0 0 0
G01985           N02611           N02610           332.866    0.0130   0 0 0 0
G01986           N02612           N01834           82.462     0.0130   0 0 0 0
G01987           N02613           N01834           89.443     0.0130   0 0 0 0
G01988           N02614           N02615           247.386    0.0130   0 0 0 0
G01989           N02616           N01625           44.721     0.0130   0 0 0 0
G01990           N02617           N00871           89.443     0.0130   0 0 0 0
G01991           N02618           N00870           188.680    0.0130   0 0 0 0
G01992           N02619           N02614           72.111     0.0130   0 0 0 0
G01993           N02620           N02444           60.000     0.0130   0 0 0 0
G01994           N02622           N01952           44.721     0.0130   0 0 0 0
G01995           N02623           N01952           56.569     0.0130   0 0 0 0
G01996           N02625           N01878           63.246     0.0130   0 0 0 0
G01997           N02626           N02625           240.000    0.0130   0 0 0 0
G01998           N02627           N02626           101.980    0.0130   0 0 0 0
G01999           N02628           N00812           72.111     0.0130   0 0 0 0
G02000           N02629           N00811           84.853     0.0130   0 0 0 0
G02001           N02630           N00813           44.721     0.0130   0 0 0 0
G02002           N02631           N02728           82.462     0.0130   0 0 0 0
G02003           N02632           N02735           44.721     0.0130   0 0 0 0
G02004           N02633           N02735           100.000    0.0130   0 0 0 0
G02005           N02634           N02633           101.980    0.0130   0 0 0 0
G02006           N02635           N02735           72.111     0.0130   0 0 0 0
G02007           N02636           N02725           260.768    0.0130   0 0 0 0
G02008           N02637           N02450           40.000     0.0130   0 0 0 0
G02009           N02638           N02121           44.721     0.0130   0 0 0 0
G02010           N02639           N02072           84.853     0.0130   0 0 0 0
G02011           N02640           N02641           181.108    0.0130   0 0 0 0
G02012           N02641           N01275           44.721     0.0130   0 0 0 0
G02013           N02642           N01275           28.284     0.0130   0 0 0 0
G02014           N02643           N02644           145.602    0.0130   0 0 0 0
G02015           N02644           N01412           28.284     0.0130   0 0 0 0
G02016           N02645           N02071           89.443     0.0130   0 0 0 0
G02017           N02646           N00616           100.000    0.0130   0 0 0 0
G02018           N02647           N02071           63.246     0.0130   0 0 0 0
G02019           N02648           N02639           121.655    0.0130   0 0 0 0
G02020           N02649           N01339           82.462     0.0130   0 0 0 0
G02021           N02650           N02649           181.108    0.0130   0 0 0 0
G02022           N02651           N01339           63.246     0.0130   0 0 0 0
G02023           N02652           N02643           44.721     0.0130   0 0 0 0
G02024           N02653           N00323           82.462     0.0130   0 0 0 0
G02025           N02654           N00692           60.000     0.0130   0 0 0 0
G02026           N02655           N02650           72.111     0.0130   0 0 0 0
G02027           N02656           N02665           181.108    0.0130   0 0 0 0
G02028           N02657           N02072           40.000     0.0130   0 0 0 0
G02029           N02658           N02677           28.284     0.0130   0 0 0 0
G02030           N02659           N02669           20.000     0.0130   0 0 0 0
G02031           N02660           N02662           220.000    0.0130   0 0 0 0
G02032           N02661           N02660           184.391    0.0130   0 0 0 0
G02033           N02662           N02677           44.721     0.0130   0 0 0 0
G02034           N02663           N02678           40.000     0.0130   0 0 0 0
G02035           N02664           N02640           20.000     0.0130   0 0 0 0
G02036           N02665           N02678           44.721     0.0130   0 0 0 0
G02037           N02666           N01275           63.246     0.0130   0 0 0 0
G02038           N02667           N02666           161.245    0.0130   0 0 0 0
G02039           N02668           N00694           80.000     0.0130   0 0 0 0
G02040           N02669           N02677           200.000    0.0130   0 0 0 0
G02041           N02670           N00694           28.284     0.0130   0 0 0 0
G02042           N02671           N01045           44.721     0.0130   0 0 0 0
G02043           N02672           N02673           63.246     0.0130   0 0 0 0
G02044           N02673           N02080           40.000     0.0130   0 0 0 0
G02045           N02674           N02080           60.000     0.0130   0 0 0 0
G02046           N02675           N01460           89.443     0.0130   0 0 0 0
G02047           N02676           N02662           145.602    0.0130   0 0 0 0
G02048           N02678           N02662           200.000    0.0130   0 0 0 0
G02049           N02679           N02676           82.462     0.0130   0 0 0 0
G02050           N02680           N02676           63.246     0.0130   0 0 0 0
G02051           N02681           N02676           80.000     0.0130   0 0 0 0
G02052           N02682           N02078           126.491    0.0130   0 0 0 0
G02053           N02685           N00697           63.246     0.0130   0 0 0 0
G02054           N02686           N00691           89.443     0.0130   0 0 0 0
G02055           N02688           N00696           107.703    0.0130   0 0 0 0
G02056           N02689           N01047           44.721     0.0130   0 0 0 0
G02057           N02690           N02686           100.000    0.0130   0 0 0 0
G02058           N02692           N02686           28.284     0.0130   0 0 0 0
G02059           N02693           N02692           169.706    0.0130   0 0 0 0
G02060           N02694           N02537           181.108    0.0130   0 0 0 0
G02061           N02695           N02537           161.245    0.0130   0 0 0 0
G02062           N02696           N00693           181.108    0.0130   0 0 0 0
G02063           N02697           N00164           63.246     0.0130   0 0 0 0
G02064           N02698           N02697           181.108    0.0130   0 0 0 0
G02065           N02699           N02605           44.721     0.0130   0 0 0 0
G02066           N02700           N01031           44.721     0.0130   0 0 0 0
G02067           N02701           N00287           72.111     0.0130   0 0 0 0
G02068           N02702           N00287           100.000    0.0130   0 0 0 0
G02069           N02703           N02713           60.000     0.0130   0 0 0 0
G02070           N02704           N01547           82.462     0.0130   0 0 0 0
G02071           N02705           N01947           72.111     0.0130   0 0 0 0
G02072           N02706           N01947           72.111     0.0130   0 0 0 0
G02073           N02707           N01947           28.284     0.0130   0 0 0 0
G02074           N02708           N01947           44.721     0.0130   0 0 0 0
G02075           N02709           N00135           100.000    0.0130   0 0 0 0
G02076           N02711           N02710           280.713    0.0130   0 0 0 0
G02077           N02712           N02710           260.768    0.0130   0 0 0 0
G02078           N02713           N02715           100.000    0.0130   0 0 0 0
G02079           N02714           N02704           140.000    0.0130   0 0 0 0
G02080           N02715           N02716           161.245    0.0130   0 0 0 0
G02081           N02716           N02483           63.246     0.0130   0 0 0 0
G02082           N02717           N02715           116.619    0.0130   0 0 0 0
G02083           N02718           N01931           82.462     0.0130   0 0 0 0
G02084           N02719           N00692           89.443     0.0130   0 0 0 0
G02085           N02720           N02146           40.000     0.0130   0 0 0 0
G02086           N02721           N02545           80.000     0.0130   0 0 0 0
G02087           N02722           N02723           216.333    0.0130   0 0 0 0
G02088           N02723           N02586           100.000    0.0130   0 0 0 0
G02089           N02724           N00531           28.284     0.0130   0 0 0 0
G02090           N02726           N02447           72.111     0.0130   0 0 0 0
G02091           N02727           N02728           220.907    0.0130   0 0 0 0
G02092           N02728           N00045           89.443     0.0130   0 0 0 0
G02093           N02729           N01524           100.000    0.0130   0 0 0 0
G02094           N02730           N02582           100.000    0.0130   0 0 0 0
G02095           N02731           N02722           100.000    0.0130   0 0 0 0
G02096           N02734           N02741           100.000    0.0130   0 0 0 0
G02097           N02735           N02736           200.000    0.0130   0 0 0 0
G02098           N02736           N00045           89.443     0.0130   0 0 0 0
G02099           N02737           N00534           100.000    0.0130   0 0 0 0
G02100           N02738           N01512           60.000     0.0130   0 0 0 0
G02101           N02739           N02722           63.246     0.0130   0 0 0 0
G02102           N02740           N02447           101.980    0.0130   0 0 0 0
G02103           N02741           N00740           28.284     0.0130   0 0 0 0
G02104           N02742           N01599           80.000     0.0130   0 0 0 0
G02105           N02743           N00135           63.246     0.0130   0 0 0 0
G02106           N02744           N00236           20.000     0.0130   0 0 0 0
G02107           N02745           N00631           80.000     0.0130   0 0 0 0
G02108           N02746           N02145           100.000    0.0130   0 0 0 0
G02109           N02747           N01885           28.284     0.0130   0 0 0 0
G02110           N02748           N00610           44.721     0.0130   0 0 0 0
G02111           N02749           N02750           184.391    0.0130   0 0 0 0
G02112           N02750           N01051           89.443     0.0130   0 0 0 0
G02113           N02751           N00608           84.853     0.0130   0 0 0 0
G02114           N02752           N01051           44.721     0.0130   0 0 0 0
G02115           N02753           N00875           63.246     0.0130   0 0 0 0
G02116           N02754           N02753           100.000    0.0130   0 0 0 0
G02117           N02755           N01993           82.462     0.0130   0 0 0 0
G02118           N02761           N01884           44.721     0.0130   0 0 0 0
G02119           N02765           N02766           161.245    0.0130   0 0 0 0
G02120           N02766           N02819           63.246     0.0130   0 0 0 0
G02121           N02767           N02818           28.284     0.0130   0 0 0 0
G02122           N02768           N01754           200.000    0.0130   0 0 0 0
G02123           N02769           N00877           100.000    0.0130   0 0 0 0
G02124           N02775           N02774           82.462     0.0130   0 0 0 0
G02125           N02776           N01890           101.980    0.0130   0 0 0 0
G02126           N02777           N00483           89.443     0.0130   0 0 0 0
G02127           N02778           N00992           72.111     0.0130   0 0 0 0
G02128           N02779           N00506           89.443     0.0130   0 0 0 0
G02129           N02780           N00491           44.721     0.0130   0 0 0 0
G02130           N02781           N02780           84.853     0.0130   0 0 0 0
G02131           N02782           N00861           100.000    0.0130   0 0 0 0
G02132           N02785           N02669           89.443     0.0130   0 0 0 0
G02133           N02786           N02670           121.655    0.0130   0 0 0 0
G02134           N02787           N02668           63.246     0.0130   0 0 0 0
G02135           N02791           N00886           100.000    0.0130   0 0 0 0
G02136           N02792           N02791           113.137    0.0130   0 0 0 0
G02137           N02793           N02795           200.000    0.0130   0 0 0 0
G02138           N02794           N01665           44.721     0.0130   0 0 0 0
G02139           N02795           N01665           40.000     0.0130   0 0 0 0
G02140           N02796           N01952           63.246     0.0130   0 0 0 0
G02141           N02798           N02804           72.111     0.0130   0 0 0 0
G02142           N02799           N02722           89.443     0.0130   0 0 0 0
G02143           N02800           N01031           60.000     0.0130   0 0 0 0
G02144           N02801           N00334           44.721     0.0130   0 0 0 0
G02145           N02802           N02081           134.164    0.0130   0 0 0 0
G02146           N02803           N01510           84.853     0.0130   0 0 0 0
G02147           N02804           N01513           284.253    0.0130   0 0 0 0
G02148           N02805           N00745           28.284     0.0130   0 0 0 0
G02149           N02809           N00205           44.721     0.0130   0 0 0 0
G02150           N02810           N01736           63.246     0.0130   0 0 0 0
G02151           N02811           N02715           60.000     0.0130   0 0 0 0
G02152           N02812           N00335           56.569     0.0130   0 0 0 0
G02153           N02813           N02811           56.569     0.0130   0 0 0 0
G02154           N02814           N02813           160.000    0.0130   0 0 0 0
G02155           N02816           N02765           40.000     0.0130   0 0 0 0
G02156           N02817           N02765           60.000     0.0130   0 0 0 0
G02157           N02818           N02769           82.462     0.0130   0 0 0 0
G02158           N02819           N00877           82.462     0.0130   0 0 0 0
G02159           N02821           N02820           161.245    0.0130   0 0 0 0
G02160           N02822           N02820           156.205    0.0130   0 0 0 0
G02161           N02823           N02824           184.391    0.0130   0 0 0 0
G02162           N02824           N00422           72.111     0.0130   0 0 0 0
G02163           N02825           N02009           20.000     0.0130   0 0 0 0
G02164           N02826           N02266           200.000    0.0130   0 0 0 0
G02165           N02827           N02550           56.569     0.0130   0 0 0 0
G02166           N02828           N02556           100.000    0.0130   0 0 0 0
G02167           N02830           N02829           200.000    0.0130   0 0 0 0
G02168           N02831           N02410           44.721     0.0130   0 0 0 0
G02169           N02832           N02836           28.284     0.0130   0 0 0 0
G02170           N02833           N02845           89.443     0.0130   0 0 0 0
G02171           N02834           N01531           63.246     0.0130   0 0 0 0
G02172           N02835           N02834           120.000    0.0130   0 0 0 0
G02173           N02836           N02835           184.391    0.0130   0 0 0 0
G02174           N02838           N00074           82.462     0.0130   0 0 0 0
G02175           N02840           N02841           196.977    0.0130   0 0 0 0
G02176           N02841           N02408           20.000     0.0130   0 0 0 0
G02177           N02842           N01639           44.721     0.0130   0 0 0 0
G02178           N02843           N02782           63.246     0.0130   0 0 0 0
G02179           N02844           N00860           89.443     0.0130   0 0 0 0
G02180           N02846           N01130           181.108    0.0130   0 0 0 0
O00001           N00211           OUT01            20.000     0.0130   0 0 0 0
O00002           N00092           OUT02            20.000     0.0130   0 0 0 0
O00003           N02002           OUT03            20.000     0.0130   0 0 0 0
O00004           N01685           OUT04            20.000     0.0130   0 0 0 0
O00005           N00682           OUT05            20.000     0.0130   0 0 0 0
O00006           N01198           OUT06            20.000     0.0130   0 0 0 0
O00007           N01868           OUT07            20.000     0.0130   0 0 0 0
O00008           N00927           OUT08            20.000     0.0130   0 0 0 0
O00009           N02367           OUT09            20.000     0.0130   0 0 0 0
O00010           N02181           OUT10            20.000     0.0130   0 0 0 0
O00011           N00744           OUT11            20.000     0.0130   0 0 0 0
O00012           N01214           OUT12            20.000     0.0130   0 0 0 0
O00013           N02829           OUT13            20.000     0.0130   0 0 0 0
O00014           N02608           OUT14            20.000     0.0130   0 0 0 0
O00015           N01930           OUT15            20.000     0.0130   0 0 0 0
O00016           N02253           OUT16            20.000     0.0130   0 0 0 0
O00017           N02774           OUT17            20.000     0.0130   0 0 0 0
O00018           N01081           OUT18            20.000     0.0130   0 0 0 0
O00019           N00891           OUT19            20.000     0.0130   0 0 0 0
O00020           N01845           OUT20            20.000     0.0130   0 0 0 0
O00021           N02289           OUT21            20.000     0.0130   0 0 0 0
O00022           N01476           OUT22            20.000     0.0130   0 0 0 0
O00023           N00013           OUT23            20.000     0.0130   0 0 0 0
O00024           N02725           OUT24            20.000     0.0130   0 0 0 0
O00025           N02687           OUT25            20.000     0.0130   0 0 0 0
O00026           N02615           OUT26            20.000     0.0130   0 0 0 0
O00027           N02069           OUT27            20.000     0.0130   0 0 0 0
O00028           N01542           OUT28            20.000     0.0130   0 0 0 0
O00029           N01269           OUT29            20.000     0.0130   0 0 0 0
O00030           N01293           OUT30            20.000     0.0130   0 0 0 0
O00031           N01999           OUT31            20.000     0.0130   0 0 0 0
O00032           N00892           OUT32            20.000     0.0130   0 0 0 0
O00033           N00479           OUT33            20.000     0.0130   0 0 0 0
O00034           N01459           OUT34            20.000     0.0130   0 0 0 0
O00035           N01259           OUT35            20.000     0.0130   0 0 0 0
O00036           N02356           OUT36            20.000     0.0130   0 0 0 0
O00037           N02142           OUT37            20.000     0.0130   0 0 0 0
O00038           N01442           OUT38            20.000     0.0130   0 0 0 0
O00039           N00543           OUT39            20.000     0.0130   0 0 0 0
O00040           N00703           OUT40            20.000     0.0130   0 0 0 0
O00041           N02845           OUT41            20.000     0.0130   0 0 0 0
O00042           N01024           OUT42            20.000     0.0130   0 0 0 0
O00043           N01335           OUT43            20.000     0.0130   0 0 0 0
O00044           N01641           OUT44            20.000     0.0130   0 0 0 0
O00045           N01610           OUT45            20.000     0.0130   0 0 0 0
O00046           N01549           OUT46            20.000     0.0130   0 0 0 0
O00047           N00886           OUT47            20.000     0.0130   0 0 0 0
O00048           N01329           OUT48            20.000     0.0130   0 0 0 0
O00049           N00045           OUT49            20.000     0.0130   0 0 0 0
O00050           N01286           OUT50            20.000     0.0130   0 0 0 0
O00051           N01090           OUT51            20.000     0.0130   0 0 0 0
O00052           N00602           OUT52            20.000     0.0130   0 0 0 0
O00053           N01082           OUT53            20.000     0.0130   0 0 0 0
O00054           N00184           OUT54            20.000     0.0130   0 0 0 0
O00055           N01776           OUT55            20.000     0.0130   0 0 0 0
O00056           N02483           OUT56            20.000     0.0130   0 0 0 0
O00057           N01334           OUT57            20.000     0.0130   0 0 0 0
O00058           N01794           OUT58            20.000     0.0130   0 0 0 0
O00059           N02677           OUT59            20.000     0.0130   0 0 0 0
O00060           N02820           OUT60            20.000     0.0130   0 0 0 0
O00061           N02545           OUT61            20.000     0.0130   0 0 0 0
O00062           N00873           OUT62            20.000     0.0130   0 0 0 0
O00063           N02710           OUT63            20.000     0.0130   0 0 0 0
O00064           N01510           OUT64            20.000     0.0130   0 0 0 0
O00065           N02557           OUT65            20.000     0.0130   0 0 0 0
O00066           N02215           OUT66            20.000     0.0130   0 0 0 0
O00067           N00606           OUT67            20.000     0.0130   0 0 0 0
O00068           N00904           OUT68            20.000     0.0130   0 0 0 0
O00069           N01206           OUT69            20.000     0.0130   0 0 0 0
O00070           N02009           OUT70            20.000     0.0130   0 0 0 0
O00071           N02438           OUT71            20.000     0.0130   0 0 0 0
O00072           N01068           OUT72            20.000     0.0130   0 0 0 0
O00073           N01878           OUT73            20.000     0.0130   0 0 0 0
O00074           N01147           OUT74            20.000     0.0130   0 0 0 0
O00075           N01944           OUT75            20.000     0.0130   0 0 0 0
O00076           N01299           OUT76            20.000     0.0130   0 0 0 0
O00077           N02815           OUT77            20.000     0.0130   0 0 0 0
O00078           N01705           OUT78            20.000     0.0130   0 0 0 0
O00079           N01119           OUT79            20.000     0.0130   0 0 0 0
O00080           N01791           OUT80            20.000     0.0130   0 0 0 0
O00081           N00392           OUT81            20.000     0.0130   0 0 0 0
O00082           N01464           OUT82            20.000     0.0130   0 0 0 0
O00083           N00692           OUT83            20.000     0.0130   0 0 0 0
O00084           N00725           OUT84            20.000     0.0130   0 0 0 0
O00085           N02139           OUT85            20.000     0.0130   0 0 0 0
O00086           N01379           OUT86            20.000     0.0130   0 0 0 0
O00087           N00685           OUT87            20.000     0.0130   0 0 0 0
O00088           N00916           OUT88            20.000     0.0130   0 0 0 0
O00089           N01366           OUT89            20.000     0.0130   0 0 0 0
O00090           N00857           OUT90            20.000     0.0130   0 0 0 0
O00091           N00531           OUT91            20.000     0.0130   0 0 0 0
O00092           N00166           OUT92            20.000     0.0130   0 0 0 0
O00093           N00036           OUT93            20.000     0.0130   0 0 0 0
O00094           N01135           OUT94            20.000     0.0130   0 0 0 0
O00095           N00832           OUT95            20.000     0.0130   0 0 0 0
O00096           N02192           OUT96            20.000     0.0130   0 0 0 0

[XSECTIONS]
G00001           CIRCULAR 0.800    0 0 0 1
G00002           CIRCULAR 0.800    0 0 0 1
G00003           CIRCULAR 0.800    0 0 0 1
G00004           CIRCULAR 0.800    0 0 0 1
G00005           CIRCULAR 0.800    0 0 0 1
G00006           CIRCULAR 0.800    0 0 0 1
G00007           CIRCULAR 0.800    0 0 0 1
G00008           CIRCULAR 1.000    0 0 0 1
G00009           CIRCULAR 0.800    0 0 0 1
G00010           CIRCULAR 0.800    0 0 0 1
G00011           CIRCULAR 0.800    0 0 0 1
G00012           CIRCULAR 0.800    0 0 0 1
G00013           CIRCULAR 0.800    0 0 0 1
G00014           CIRCULAR 1.000    0 0 0 1
G00015           CIRCULAR 0.800    0 0 0 1
G00016           CIRCULAR 0.800    0 0 0 1
G00017           CIRCULAR 0.800    0 0 0 1
G00018           CIRCULAR 0.800    0 0 0 1
G00019           CIRCULAR 0.800    0 0 0 1
G00020           CIRCULAR 0.800    0 0 0 1
G00021           CIRCULAR 0.800    0 0 0 1
G00022           CIRCULAR 0.800    0 0 0 1
G00023           CIRCULAR 0.800    0 0 0 1
G00024           CIRCULAR 0.800    0 0 0 1
G00025           CIRCULAR 0.800    0 0 0 1
G00026           CIRCULAR 0.800    0 0 0 1
G00027           CIRCULAR 0.800    0 0 0 1
G00028           CIRCULAR 0.800    0 0 0 1
G00029           CIRCULAR 0.800    0 0 0 1
G00030           CIRCULAR 0.800    0 0 0 1
G00031           CIRCULAR 1.000    0 0 0 1
G00032           CIRCULAR 0.800    0 0 0 1
G00033           CIRCULAR 0.800    0 0 0 1
G00034           CIRCULAR 0.800    0 0 0 1
G00035           CIRCULAR 0.800    0 0 0 1
G00036           CIRCULAR 0.800    0 0 0 1
G00037           CIRCULAR 1.000    0 0 0 1
G00038           CIRCULAR 0.800    0 0 0 1
G00039           CIRCULAR 0.800    0 0 0 1
G00040           CIRCULAR 0.800    0 0 0 1
G00041           CIRCULAR 0.800    0 0 0 1
G00042           CIRCULAR 0.800    0 0 0 1
G00043           CIRCULAR 0.800    0 0 0 1
G00044           CIRCULAR 0.800    0 0 0 1
G00045           CIRCULAR 0.800    0 0 0 1
G00046           CIRCULAR 1.000    0 0 0 1
G00047           CIRCULAR 0.800    0 0 0 1
G00048           CIRCULAR 0.800    0 0 0 1
G00049           CIRCULAR 0.800    0 0 0 1
G00050           CIRCULAR 0.800    0 0 0 1
G00051           CIRCULAR 0.800    0 0 0 1
G00052           CIRCULAR 0.800    0 0 0 1
G00053           CIRCULAR 0.800    0 0 0 1
G00054           CIRCULAR 0.800    0 0 0 1
G00055           CIRCULAR 0.800    0 0 0 1
G00056           CIRCULAR 0.800    0 0 0 1
G00057           CIRCULAR 0.800    0 0 0 1
G00058           CIRCULAR 0.800    0 0 0 1
G00059           CIRCULAR 0.800    0 0 0 1
G00060           CIRCULAR 0.800    0 0 0 1
G00061           CIRCULAR 0.800    0 0 0 1
G00062           CIRCULAR 0.800    0 0 0 1
G00063           CIRCULAR 0.800    0 0 0 1
G00064           CIRCULAR 1.000    0 0 0 1
G00065           CIRCULAR 0.800    0 0 0 1
G00066           CIRCULAR 0.800    0 0 0 1
G00067           CIRCULAR 1.000    0 0 0 1
G00068           CIRCULAR 0.800    0 0 0 1
G00069           CIRCULAR 0.800    0 0 0 1
G00070           CIRCULAR 0.800    0 0 0 1
G00071           CIRCULAR 0.800    0 0 0 1
G00072           CIRCULAR 0.800    0 0 0 1
G00073           CIRCULAR 0.800    0 0 0 1
G00074           CIRCULAR 0.800    0 0 0 1
G00075           CIRCULAR 0.800    0 0 0 1
G00076           CIRCULAR 0.800    0 0 0 1
G00077           CIRCULAR 0.800    0 0 0 1
G00078           CIRCULAR 0.800    0 0 0 1
G00079           CIRCULAR 0.800    0 0 0 1
G00080           CIRCULAR 1.000    0 0 0 1
G00081           CIRCULAR 0.800    0 0 0 1
G00082           CIRCULAR 0.800    0 0 0 1
G00083           CIRCULAR 1.000    0 0 0 1
G00084           CIRCULAR 1.000    0 0 0 1
G00085           CIRCULAR 0.800    0 0 0 1
G00086           CIRCULAR 0.800    0 0 0 1
G00087           CIRCULAR 1.200    0 0 0 1
G00088           CIRCULAR 0.800    0 0 0 1
G00089           CIRCULAR 0.800    0 0 0 1
G00090           CIRCULAR 0.800    0 0 0 1
G00091           CIRCULAR 0.800    0 0 0 1
G00092           CIRCULAR 0.800    0 0 0 1
G00093           CIRCULAR 0.800    0 0 0 1
G00094           CIRCULAR 0.800    0 0 0 1
G00095           CIRCULAR 0.800    0 0 0 1
G00096           CIRCULAR 0.800    0 0 0 1
G00097           CIRCULAR 0.800    0 0 0 1
G00098           CIRCULAR 1.000    0 0 0 1
G00099           CIRCULAR 0.800    0 0 0 1
G00100           CIRCULAR 0.800    0 0 0 1
G00101           CIRCULAR 1.000    0 0 0 1
G00102           CIRCULAR 0.800    0 0 0 1
G00103           CIRCULAR 0.800    0 0 0 1
G00104           CIRCULAR 0.800    0 0 0 1
G00105           CIRCULAR 1.000    0 0 0 1
G00106           CIRCULAR 0.800    0 0 0 1
G00107           CIRCULAR 0.800    0 0 0 1
G00108           CIRCULAR 0.800    0 0 0 1
G00109           CIRCULAR 0.800    0 0 0 1
G00110           CIRCULAR 0.800    0 0 0 1
G00111           CIRCULAR 0.800    0 0 0 1
G00112           CIRCULAR 0.800    0 0 0 1
G00113           CIRCULAR 0.800    0 0 0 1
G00114           CIRCULAR 1.000    0 0 0 1
G00115           CIRCULAR 0.800    0 0 0 1
G00116           CIRCULAR 1.000    0 0 0 1
G00117           CIRCULAR 0.800    0 0 0 1
G00118           CIRCULAR 0.800    0 0 0 1
G00119           CIRCULAR 0.800    0 0 0 1
G00120           CIRCULAR 0.800    0 0 0 1
G00121           CIRCULAR 0.800    0 0 0 1
G00122           CIRCULAR 0.800    0 0 0 1
G00123           CIRCULAR 0.800    0 0 0 1
G00124           CIRCULAR 1.000    0 0 0 1
G00125           CIRCULAR 0.800    0 0 0 1
G00126           CIRCULAR 1.000    0 0 0 1
G00127           CIRCULAR 0.800    0 0 0 1
G00128           CIRCULAR 0.800    0 0 0 1
G00129           CIRCULAR 0.800    0 0 0 1
G00130           CIRCULAR 0.800    0 0 0 1
G00131           CIRCULAR 1.000    0 0 0 1
G00132           CIRCULAR 0.800    0 0 0 1
G00133           CIRCULAR 0.800    0 0 0 1
G00134           CIRCULAR 0.800    0 0 0 1
G00135           CIRCULAR 0.800    0 0 0 1
G00136           CIRCULAR 1.000    0 0 0 1
G00137           CIRCULAR 1.000    0 0 0 1
G00138           CIRCULAR 1.000    0 0 0 1
G00139           CIRCULAR 1.000    0 0 0 1
G00140           CIRCULAR 0.800    0 0 0 1
G00141           CIRCULAR 1.000    0 0 0 1
G00142           CIRCULAR 1.000    0 0 0 1
G00143           CIRCULAR 1.000    0 0 0 1
G00144           CIRCULAR 0.800    0 0 0 1
G00145           CIRCULAR 0.800    0 0 0 1
G00146           CIRCULAR 0.800    0 0 0 1
G00147           CIRCULAR 0.800    0 0 0 1
G00148           CIRCULAR 0.800    0 0 0 1
G00149           CIRCULAR 0.800    0 0 0 1
G00150           CIRCULAR 0.800    0 0 0 1
G00151           CIRCULAR 0.800    0 0 0 1
G00152           CIRCULAR 0.800    0 0 0 1
G00153           CIRCULAR 0.800    0 0 0 1
G00154           CIRCULAR 0.800    0 0 0 1
G00155           CIRCULAR 0.800    0 0 0 1
G00156           CIRCULAR 1.000    0 0 0 1
G00157           CIRCULAR 0.800    0 0 0 1
G00158           CIRCULAR 0.800    0 0 0 1
G00159           CIRCULAR 0.800    0 0 0 1
G00160           CIRCULAR 1.000    0 0 0 1
G00161           CIRCULAR 0.800    0 0 0 1
G00162           CIRCULAR 0.800    0 0 0 1
G00163           CIRCULAR 0.800    0 0 0 1
G00164           CIRCULAR 0.800    0 0 0 1
G00165           CIRCULAR 0.800    0 0 0 1
G00166           CIRCULAR 0.800    0 0 0 1
G00167           CIRCULAR 0.800    0 0 0 1
G00168           CIRCULAR 0.800    0 0 0 1
G00169           CIRCULAR 0.800    0 0 0 1
G00170           CIRCULAR 0.800    0 0 0 1
G00171           CIRCULAR 0.800    0 0 0 1
G00172           CIRCULAR 1.000    0 0 0 1
G00173           CIRCULAR 1.200    0 0 0 1
G00174           CIRCULAR 0.800    0 0 0 1
G00175           CIRCULAR 0.800    0 0 0 1
G00176           CIRCULAR 0.800    0 0 0 1
G00177           CIRCULAR 0.800    0 0 0 1
G00178           CIRCULAR 0.800    0 0 0 1
G00179           CIRCULAR 0.800    0 0 0 1
G00180           CIRCULAR 0.800    0 0 0 1
G00181           CIRCULAR 0.800    0 0 0 1
G00182           CIRCULAR 0.800    0 0 0 1
G00183           CIRCULAR 0.800    0 0 0 1
G00184           CIRCULAR 0.800    0 0 0 1
G00185           CIRCULAR 0.800    0 0 0 1
G00186           CIRCULAR 0.800    0 0 0 1
G00187           CIRCULAR 0.800    0 0 0 1
G00188           CIRCULAR 1.000    0 0 0 1
G00189           CIRCULAR 1.000    0 0 0 1
G00190           CIRCULAR 1.000    0 0 0 1
G00191           CIRCULAR 1.200    0 0 0 1
G00192           CIRCULAR 1.000    0 0 0 1
G00193           CIRCULAR 0.800    0 0 0 1
G00194           CIRCULAR 0.800    0 0 0 1
G00195           CIRCULAR 0.800    0 0 0 1
G00196           CIRCULAR 0.800    0 0 0 1
G00197           CIRCULAR 0.800    0 0 0 1
G00198           CIRCULAR 0.800    0 0 0 1
G00199           CIRCULAR 0.800    0 0 0 1
G00200           CIRCULAR 0.800    0 0 0 1
G00201           CIRCULAR 0.800    0 0 0 1
G00202           CIRCULAR 0.800    0 0 0 1
G00203           CIRCULAR 0.800    0 0 0 1
G00204           CIRCULAR 0.800    0 0 0 1
G00205           CIRCULAR 0.800    0 0 0 1
G00206           CIRCULAR 0.800    0 0 0 1
G00207           CIRCULAR 0.800    0 0 0 1
G00208           CIRCULAR 0.800    0 0 0 1
G00209           CIRCULAR 0.800    0 0 0 1
G00210           CIRCULAR 0.800    0 0 0 1
G00211           CIRCULAR 0.800    0 0 0 1
G00212           CIRCULAR 0.800    0 0 0 1
G00213           CIRCULAR 0.800    0 0 0 1
G00214           CIRCULAR 0.800    0 0 0 1
G00215           CIRCULAR 0.800    0 0 0 1
G00216           CIRCULAR 0.800    0 0 0 1
G00217           CIRCULAR 0.800    0 0 0 1
G00218           CIRCULAR 0.800    0 0 0 1
G00219           CIRCULAR 0.800    0 0 0 1
G00220           CIRCULAR 0.800    0 0 0 1
G00221           CIRCULAR 0.800    0 0 0 1
G00222           CIRCULAR 0.800    0 0 0 1
G00223           CIRCULAR 0.800    0 0 0 1
G00224           CIRCULAR 0.800    0 0 0 1
G00225           CIRCULAR 0.800    0 0 0 1
G00226           CIRCULAR 0.800    0 0 0 1
G00227           CIRCULAR 0.800    0 0 0 1
G00228           CIRCULAR 0.800    0 0 0 1
G00229           CIRCULAR 0.800    0 0 0 1
G00230           CIRCULAR 1.000    0 0 0 1
G00231           CIRCULAR 1.000    0 0 0 1
G00232           CIRCULAR 1.000    0 0 0 1
G00233           CIRCULAR 1.000    0 0 0 1
G00234           CIRCULAR 1.000    0 0 0 1
G00235           CIRCULAR 0.800    0 0 0 1
G00236           CIRCULAR 0.800    0 0 0 1
G00237           CIRCULAR 0.800    0 0 0 1
G00238           CIRCULAR 1.000    0 0 0 1
G00239           CIRCULAR 1.000    0 0 0 1
G00240           CIRCULAR 0.800    0 0 0 1
G00241           CIRCULAR 0.800    0 0 0 1
G00242           CIRCULAR 0.800    0 0 0 1
G00243           CIRCULAR 0.800    0 0 0 1
G00244           CIRCULAR 0.800    0 0 0 1
G00245           CIRCULAR 1.000    0 0 0 1
G00246           CIRCULAR 0.800    0 0 0 1
G00247           CIRCULAR 0.800    0 0 0 1
G00248           CIRCULAR 1.000    0 0 0 1
G00249           CIRCULAR 0.800    0 0 0 1
G00250           CIRCULAR 0.800    0 0 0 1
G00251           CIRCULAR 0.800    0 0 0 1
G00252           CIRCULAR 0.800    0 0 0 1
G00253           CIRCULAR 0.800    0 0 0 1
G00254           CIRCULAR 1.000    0 0 0 1
G00255           CIRCULAR 0.800    0 0 0 1
G00256           CIRCULAR 0.800    0 0 0 1
G00257           CIRCULAR 1.000    0 0 0 1
G00258           CIRCULAR 0.800    0 0 0 1
G00259           CIRCULAR 0.800    0 0 0 1
G00260           CIRCULAR 0.800    0 0 0 1
G00261           CIRCULAR 0.800    0 0 0 1
G00262           CIRCULAR 1.000    0 0 0 1
G00263           CIRCULAR 0.800    0 0 0 1
G00264           CIRCULAR 0.800    0 0 0 1
G00265           CIRCULAR 0.800    0 0 0 1
G00266           CIRCULAR 0.800    0 0 0 1
G00267           CIRCULAR 0.800    0 0 0 1
G00268           CIRCULAR 0.800    0 0 0 1
G00269           CIRCULAR 0.800    0 0 0 1
G00270           CIRCULAR 0.800    0 0 0 1
G00271           CIRCULAR 0.800    0 0 0 1
G00272           CIRCULAR 0.800    0 0 0 1
G00273           CIRCULAR 0.800    0 0 0 1
G00274           CIRCULAR 0.800    0 0 0 1
G00275           CIRCULAR 0.800    0 0 0 1
G00276           CIRCULAR 0.800    0 0 0 1
G00277           CIRCULAR 0.800    0 0 0 1
G00278           CIRCULAR 0.800    0 0 0 1
G00279           CIRCULAR 0.800    0 0 0 1
G00280           CIRCULAR 1.000    0 0 0 1
G00281           CIRCULAR 0.800    0 0 0 1
G00282           CIRCULAR 0.800    0 0 0 1
G00283           CIRCULAR 0.800    0 0 0 1
G00284           CIRCULAR 0.800    0 0 0 1
G00285           CIRCULAR 0.800    0 0 0 1
G00286           CIRCULAR 0.800    0 0 0 1
G00287           CIRCULAR 0.800    0 0 0 1
G00288           CIRCULAR 0.800    0 0 0 1
G00289           CIRCULAR 0.800    0 0 0 1
G00290           CIRCULAR 0.800    0 0 0 1
G00291           CIRCULAR 0.800    0 0 0 1
G00292           CIRCULAR 0.800    0 0 0 1
G00293           CIRCULAR 0.800    0 0 0 1
G00294           CIRCULAR 0.800    0 0 0 1
G00295           CIRCULAR 0.800    0 0 0 1
G00296           CIRCULAR 0.800    0 0 0 1
G00297           CIRCULAR 0.800    0 0 0 1
G00298           CIRCULAR 0.800    0 0 0 1
G00299           CIRCULAR 0.800    0 0 0 1
G00300           CIRCULAR 0.800    0 0 0 1
G00301           CIRCULAR 1.000    0 0 0 1
G00302           CIRCULAR 1.000    0 0 0 1
G00303           CIRCULAR 0.800    0 0 0 1
G00304           CIRCULAR 0.800    0 0 0 1
G00305           CIRCULAR 0.800    0 0 0 1
G00306           CIRCULAR 0.800    0 0 0 1
G00307           CIRCULAR 0.800    0 0 0 1
G00308           CIRCULAR 0.800    0 0 0 1
G00309           CIRCULAR 0.800    0 0 0 1
G00310           CIRCULAR 0.800    0 0 0 1
G00311           CIRCULAR 0.800    0 0 0 1
G00312           CIRCULAR 0.800    0 0 0 1
G00313           CIRCULAR 0.800    0 0 0 1
G00314           CIRCULAR 0.800    0 0 0 1
G00315           CIRCULAR 0.800    0 0 0 1
G00316           CIRCULAR 0.800    0 0 0 1
G00317           CIRCULAR 0.800    0 0 0 1
G00318           CIRCULAR 0.800    0 0 0 1
G00319           CIRCULAR 0.800    0 0 0 1
G00320           CIRCULAR 0.800    0 0 0 1
G00321           CIRCULAR 0.800    0 0 0 1
G00322           CIRCULAR 0.800    0 0 0 1
G00323           CIRCULAR 0.800    0 0 0 1
G00324           CIRCULAR 0.800    0 0 0 1
G00325           CIRCULAR 0.800    0 0 0 1
G00326           CIRCULAR 0.800    0 0 0 1
G00327           CIRCULAR 0.800    0 0 0 1
G00328           CIRCULAR 0.800    0 0 0 1
G00329           CIRCULAR 0.800    0 0 0 1
G00330           CIRCULAR 0.800    0 0 0 1
G00331           CIRCULAR 0.800    0 0 0 1
G00332           CIRCULAR 0.800    0 0 0 1
G00333           CIRCULAR 0.800    0 0 0 1
G00334           CIRCULAR 1.000    0 0 0 1
G00335           CIRCULAR 0.800    0 0 0 1
G00336           CIRCULAR 0.800    0 0 0 1
G00337           CIRCULAR 0.800    0 0 0 1
G00338           CIRCULAR 0.800    0 0 0 1
G00339           CIRCULAR 0.800    0 0 0 1
G00340           CIRCULAR 0.800    0 0 0 1
G00341           CIRCULAR 1.000    0 0 0 1
G00342           CIRCULAR 0.800    0 0 0 1
G00343           CIRCULAR 0.800    0 0 0 1
G00344           CIRCULAR 0.800    0 0 0 1
G00345           CIRCULAR 0.800    0 0 0 1
G00346           CIRCULAR 1.000    0 0 0 1
G00347           CIRCULAR 0.800    0 0 0 1
G00348           CIRCULAR 0.800    0 0 0 1
G00349           CIRCULAR 0.800    0 0 0 1
G00350           CIRCULAR 0.800    0 0 0 1
G00351           CIRCULAR 0.800    0 0 0 1
G00352           CIRCULAR 0.800    0 0 0 1
G00353           CIRCULAR 0.800    0 0 0 1
G00354           CIRCULAR 0.800    0 0 0 1
G00355           CIRCULAR 0.800    0 0 0 1
G00356           CIRCULAR 0.800    0 0 0 1
G00357           CIRCULAR 0.800    0 0 0 1
G00358           CIRCULAR 1.000    0 0 0 1
G00359           CIRCULAR 1.000    0 0 0 1
G00360           CIRCULAR 1.000    0 0 0 1
G00361           CIRCULAR 0.800    0 0 0 1
G00362           CIRCULAR 0.800    0 0 0 1
G00363           CIRCULAR 0.800    0 0 0 1
G00364           CIRCULAR 0.800    0 0 0 1
G00365           CIRCULAR 0.800    0 0 0 1
G00366           CIRCULAR 0.800    0 0 0 1
G00367           CIRCULAR 0.800    0 0 0 1
G00368           CIRCULAR 0.800    0 0 0 1
G00369           CIRCULAR 0.800    0 0 0 1
G00370           CIRCULAR 0.800    0 0 0 1
G00371           CIRCULAR 0.800    0 0 0 1
G00372           CIRCULAR 0.800    0 0 0 1
G00373           CIRCULAR 0.800    0 0 0 1
G00374           CIRCULAR 0.800    0 0 0 1
G00375           CIRCULAR 0.800    0 0 0 1
G00376           CIRCULAR 0.800    0 0 0 1
G00377           CIRCULAR 0.800    0 0 0 1
G00378           CIRCULAR 0.800    0 0 0 1
G00379           CIRCULAR 0.800    0 0 0 1
G00380           CIRCULAR 0.800    0 0 0 1
G00381           CIRCULAR 0.800    0 0 0 1
G00382           CIRCULAR 0.800    0 0 0 1
G00383           CIRCULAR 0.800    0 0 0 1
G00384           CIRCULAR 0.800    0 0 0 1
G00385           CIRCULAR 0.800    0 0 0 1
G00386           CIRCULAR 0.800    0 0 0 1
G00387           CIRCULAR 0.800    0 0 0 1
G00388           CIRCULAR 0.800    0 0 0 1
G00389           CIRCULAR 0.800    0 0 0 1
G00390           CIRCULAR 0.800    0 0 0 1
G00391           CIRCULAR 0.800    0 0 0 1
G00392           CIRCULAR 0.800    0 0 0 1
G00393           CIRCULAR 1.000    0 0 0 1
G00394           CIRCULAR 0.800    0 0 0 1
G00395           CIRCULAR 0.800    0 0 0 1
G00396           CIRCULAR 0.800    0 0 0 1
G00397           CIRCULAR 1.000    0 0 0 1
G00398           CIRCULAR 0.800    0 0 0 1
G00399           CIRCULAR 0.800    0 0 0 1
G00400           CIRCULAR 0.800    0 0 0 1
G00401           CIRCULAR 0.800    0 0 0 1
G00402           CIRCULAR 0.800    0 0 0 1
G00403           CIRCULAR 0.800    0 0 0 1
G00404           CIRCULAR 1.200    0 0 0 1
G00405           CIRCULAR 0.800    0 0 0 1
G00406           CIRCULAR 1.000    0 0 0 1
G00407           CIRCULAR 0.800    0 0 0 1
G00408           CIRCULAR 0.800    0 0 0 1
G00409           CIRCULAR 0.800    0 0 0 1
G00410           CIRCULAR 0.800    0 0 0 1
G00411           CIRCULAR 0.800    0 0 0 1
G00412           CIRCULAR 0.800    0 0 0 1
G00413           CIRCULAR 0.800    0 0 0 1
G00414           CIRCULAR 0.800    0 0 0 1
G00415           CIRCULAR 1.000    0 0 0 1
G00416           CIRCULAR 1.000    0 0 0 1
G00417           CIRCULAR 0.800    0 0 0 1
G00418           CIRCULAR 0.800    0 0 0 1
G00419           CIRCULAR 0.800    0 0 0 1
G00420           CIRCULAR 0.800    0 0 0 1
G00421           CIRCULAR 0.800    0 0 0 1
G00422           CIRCULAR 0.800    0 0 0 1
G00423           CIRCULAR 0.800    0 0 0 1
G00424           CIRCULAR 1.000    0 0 0 1
G00425           CIRCULAR 1.000    0 0 0 1
G00426           CIRCULAR 0.800    0 0 0 1
G00427           CIRCULAR 0.800    0 0 0 1
G00428           CIRCULAR 0.800    0 0 0 1
G00429           CIRCULAR 0.800    0 0 0 1
G00430           CIRCULAR 0.800    0 0 0 1
G00431           CIRCULAR 0.800    0 0 0 1
G00432           CIRCULAR 0.800    0 0 0 1
G00433           CIRCULAR 0.800    0 0 0 1
G00434           CIRCULAR 1.000    0 0 0 1
G00435           CIRCULAR 0.800    0 0 0 1
G00436           CIRCULAR 0.800    0 0 0 1
G00437           CIRCULAR 1.000    0 0 0 1
G00438           CIRCULAR 0.800    0 0 0 1
G00439           CIRCULAR 0.800    0 0 0 1
G00440           CIRCULAR 0.800    0 0 0 1
G00441           CIRCULAR 1.000    0 0 0 1
G00442           CIRCULAR 1.000    0 0 0 1
G00443           CIRCULAR 0.800    0 0 0 1
G00444           CIRCULAR 0.800    0 0 0 1
G00445           CIRCULAR 0.800    0 0 0 1
G00446           CIRCULAR 0.800    0 0 0 1
G00447           CIRCULAR 0.800    0 0 0 1
G00448           CIRCULAR 0.800    0 0 0 1
G00449           CIRCULAR 0.800    0 0 0 1
G00450           CIRCULAR 0.800    0 0 0 1
G00451           CIRCULAR 0.800    0 0 0 1
G00452           CIRCULAR 0.800    0 0 0 1
G00453           CIRCULAR 1.000    0 0 0 1
G00454           CIRCULAR 1.000    0 0 0 1
G00455           CIRCULAR 0.800    0 0 0 1
G00456           CIRCULAR 0.800    0 0 0 1
G00457           CIRCULAR 0.800    0 0 0 1
G00458           CIRCULAR 0.800    0 0 0 1
G00459           CIRCULAR 0.800    0 0 0 1
G00460           CIRCULAR 0.800    0 0 0 1
G00461           CIRCULAR 0.800    0 0 0 1
G00462           CIRCULAR 0.800    0 0 0 1
G00463           CIRCULAR 0.800    0 0 0 1
G00464           CIRCULAR 0.800    0 0 0 1
G00465           CIRCULAR 0.800    0 0 0 1
G00466           CIRCULAR 0.800    0 0 0 1
G00467           CIRCULAR 0.800    0 0 0 1
G00468           CIRCULAR 1.000    0 0 0 1
G00469           CIRCULAR 1.000    0 0 0 1
G00470           CIRCULAR 0.800    0 0 0 1
G00471           CIRCULAR 0.800    0 0 0 1
G00472           CIRCULAR 1.000    0 0 0 1
G00473           CIRCULAR 0.800    0 0 0 1
G00474           CIRCULAR 0.800    0 0 0 1
G00475           CIRCULAR 0.800    0 0 0 1
G00476           CIRCULAR 0.800    0 0 0 1
G00477           CIRCULAR 0.800    0 0 0 1
G00478           CIRCULAR 0.800    0 0 0 1
G00479           CIRCULAR 0.800    0 0 0 1
G00480           CIRCULAR 1.000    0 0 0 1
G00481           CIRCULAR 1.000    0 0 0 1
G00482           CIRCULAR 0.800    0 0 0 1
G00483           CIRCULAR 0.800    0 0 0 1
G00484           CIRCULAR 0.800    0 0 0 1
G00485           CIRCULAR 0.800    0 0 0 1
G00486           CIRCULAR 1.000    0 0 0 1
G00487           CIRCULAR 0.800    0 0 0 1
G00488           CIRCULAR 0.800    0 0 0 1
G00489           CIRCULAR 1.000    0 0 0 1
G00490           CIRCULAR 1.000    0 0 0 1
G00491           CIRCULAR 0.800    0 0 0 1
G00492           CIRCULAR 0.800    0 0 0 1
G00493           CIRCULAR 0.800    0 0 0 1
G00494           CIRCULAR 0.800    0 0 0 1
G00495           CIRCULAR 0.800    0 0 0 1
G00496           CIRCULAR 0.800    0 0 0 1
G00497           CIRCULAR 0.800    0 0 0 1
G00498           CIRCULAR 1.000    0 0 0 1
G00499           CIRCULAR 0.800    0 0 0 1
G00500           CIRCULAR 0.800    0 0 0 1
G00501           CIRCULAR 1.000    0 0 0 1
G00502           CIRCULAR 1.000    0 0 0 1
G00503           CIRCULAR 0.800    0 0 0 1
G00504           CIRCULAR 0.800    0 0 0 1
G00505           CIRCULAR 0.800    0 0 0 1
G00506           CIRCULAR 0.800    0 0 0 1
G00507           CIRCULAR 0.800    0 0 0 1
G00508           CIRCULAR 0.800    0 0 0 1
G00509           CIRCULAR 0.800    0 0 0 1
G00510           CIRCULAR 0.800    0 0 0 1
G00511           CIRCULAR 0.800    0 0 0 1
G00512           CIRCULAR 0.800    0 0 0 1
G00513           CIRCULAR 0.800    0 0 0 1
G00514           CIRCULAR 0.800    0 0 0 1
G00515           CIRCULAR 0.800    0 0 0 1
G00516           CIRCULAR 0.800    0 0 0 1
G00517           CIRCULAR 0.800    0 0 0 1
G00518           CIRCULAR 0.800    0 0 0 1
G00519           CIRCULAR 0.800    0 0 0 1
G00520           CIRCULAR 0.800    0 0 0 1
G00521           CIRCULAR 0.800    0 0 0 1
G00522           CIRCULAR 0.800    0 0 0 1
G00523           CIRCULAR 0.800    0 0 0 1
G00524           CIRCULAR 0.800    0 0 0 1
G00525           CIRCULAR 1.000    0 0 0 1
G00526           CIRCULAR 1.000    0 0 0 1
G00527           CIRCULAR 0.800    0 0 0 1
G00528           CIRCULAR 0.800    0 0 0 1
G00529           CIRCULAR 0.800    0 0 0 1
G00530           CIRCULAR 0.800    0 0 0 1
G00531           CIRCULAR 0.800    0 0 0 1
G00532           CIRCULAR 0.800    0 0 0 1
G00533           CIRCULAR 0.800    0 0 0 1
G00534           CIRCULAR 0.800    0 0 0 1
G00535           CIRCULAR 0.800    0 0 0 1
G00536           CIRCULAR 0.800    0 0 0 1
G00537           CIRCULAR 0.800    0 0 0 1
G00538           CIRCULAR 0.800    0 0 0 1
G00539           CIRCULAR 0.800    0 0 0 1
G00540           CIRCULAR 0.800    0 0 0 1
G00541           CIRCULAR 0.800    0 0 0 1
G00542           CIRCULAR 0.800    0 0 0 1
G00543           CIRCULAR 0.800    0 0 0 1
G00544           CIRCULAR 0.800    0 0 0 1
G00545           CIRCULAR 0.800    0 0 0 1
G00546           CIRCULAR 0.800    0 0 0 1
G00547           CIRCULAR 0.800    0 0 0 1
G00548           CIRCULAR 0.800    0 0 0 1
G00549           CIRCULAR 0.800    0 0 0 1
G00550           CIRCULAR 0.800    0 0 0 1
G00551           CIRCULAR 1.000    0 0 0 1
G00552           CIRCULAR 1.000    0 0 0 1
G00553           CIRCULAR 0.800    0 0 0 1
G00554           CIRCULAR 0.800    0 0 0 1
G00555           CIRCULAR 0.800    0 0 0 1
G00556           CIRCULAR 0.800    0 0 0 1
G00557           CIRCULAR 0.800    0 0 0 1
G00558           CIRCULAR 1.000    0 0 0 1
G00559           CIRCULAR 0.800    0 0 0 1
G00560           CIRCULAR 0.800    0 0 0 1
G00561           CIRCULAR 0.800    0 0 0 1
G00562           CIRCULAR 0.800    0 0 0 1
G00563           CIRCULAR 0.800    0 0 0 1
G00564           CIRCULAR 0.800    0 0 0 1
G00565           CIRCULAR 0.800    0 0 0 1
G00566           CIRCULAR 0.800    0 0 0 1
G00567           CIRCULAR 1.000    0 0 0 1
G00568           CIRCULAR 1.000    0 0 0 1
G00569           CIRCULAR 0.800    0 0 0 1
G00570           CIRCULAR 1.000    0 0 0 1
G00571           CIRCULAR 0.800    0 0 0 1
G00572           CIRCULAR 1.000    0 0 0 1
G00573           CIRCULAR 0.800    0 0 0 1
G00574           CIRCULAR 0.800    0 0 0 1
G00575           CIRCULAR 0.800    0 0 0 1
G00576           CIRCULAR 1.000    0 0 0 1
G00577           CIRCULAR 1.000    0 0 0 1
G00578           CIRCULAR 0.800    0 0 0 1
G00579           CIRCULAR 0.800    0 0 0 1
G00580           CIRCULAR 0.800    0 0 0 1
G00581           CIRCULAR 0.800    0 0 0 1
G00582           CIRCULAR 0.800    0 0 0 1
G00583           CIRCULAR 0.800    0 0 0 1
G00584           CIRCULAR 1.000    0 0 0 1
G00585           CIRCULAR 0.800    0 0 0 1
G00586           CIRCULAR 0.800    0 0 0 1
G00587           CIRCULAR 0.800    0 0 0 1
G00588           CIRCULAR 0.800    0 0 0 1
G00589           CIRCULAR 0.800    0 0 0 1
G00590           CIRCULAR 1.000    0 0 0 1
G00591           CIRCULAR 0.800    0 0 0 1
G00592           CIRCULAR 0.800    0 0 0 1
G00593           CIRCULAR 1.000    0 0 0 1
G00594           CIRCULAR 0.800    0 0 0 1
G00595           CIRCULAR 0.800    0 0 0 1
G00596           CIRCULAR 0.800    0 0 0 1
G00597           CIRCULAR 0.800    0 0 0 1
G00598           CIRCULAR 1.000    0 0 0 1
G00599           CIRCULAR 0.800    0 0 0 1
G00600           CIRCULAR 0.800    0 0 0 1
G00601           CIRCULAR 0.800    0 0 0 1
G00602           CIRCULAR 1.000    0 0 0 1
G00603           CIRCULAR 0.800    0 0 0 1
G00604           CIRCULAR 0.800    0 0 0 1
G00605           CIRCULAR 1.000    0 0 0 1
G00606           CIRCULAR 0.800    0 0 0 1
G00607           CIRCULAR 1.000    0 0 0 1
G00608           CIRCULAR 0.800    0 0 0 1
G00609           CIRCULAR 0.800    0 0 0 1
G00610           CIRCULAR 0.800    0 0 0 1
G00611           CIRCULAR 0.800    0 0 0 1
G00612           CIRCULAR 0.800    0 0 0 1
G00613           CIRCULAR 0.800    0 0 0 1
G00614           CIRCULAR 0.800    0 0 0 1
G00615           CIRCULAR 0.800    0 0 0 1
G00616           CIRCULAR 0.800    0 0 0 1
G00617           CIRCULAR 0.800    0 0 0 1
G00618           CIRCULAR 0.800    0 0 0 1
G00619           CIRCULAR 0.800    0 0 0 1
G00620           CIRCULAR 0.800    0 0 0 1
G00621           CIRCULAR 0.800    0 0 0 1
G00622           CIRCULAR 0.800    0 0 0 1
G00623           CIRCULAR 0.800    0 0 0 1
G00624           CIRCULAR 0.800    0 0 0 1
G00625           CIRCULAR 0.800    0 0 0 1
G00626           CIRCULAR 0.800    0 0 0 1
G00627           CIRCULAR 0.800    0 0 0 1
G00628           CIRCULAR 0.800    0 0 0 1
G00629           CIRCULAR 0.800    0 0 0 1
G00630           CIRCULAR 0.800    0 0 0 1
G00631           CIRCULAR 0.800    0 0 0 1
G00632           CIRCULAR 0.800    0 0 0 1
G00633           CIRCULAR 0.800    0 0 0 1
G00634           CIRCULAR 0.800    0 0 0 1
G00635           CIRCULAR 1.000    0 0 0 1
G00636           CIRCULAR 0.800    0 0 0 1
G00637           CIRCULAR 0.800    0 0 0 1
G00638           CIRCULAR 0.800    0 0 0 1
G00639           CIRCULAR 0.800    0 0 0 1
G00640           CIRCULAR 0.800    0 0 0 1
G00641           CIRCULAR 0.800    0 0 0 1
G00642           CIRCULAR 0.800    0 0 0 1
G00643           CIRCULAR 0.800    0 0 0 1
G00644           CIRCULAR 0.800    0 0 0 1
G00645           CIRCULAR 0.800    0 0 0 1
G00646           CIRCULAR 0.800    0 0 0 1
G00647           CIRCULAR 0.800    0 0 0 1
G00648           CIRCULAR 0.800    0 0 0 1
G00649           CIRCULAR 0.800    0 0 0 1
G00650           CIRCULAR 0.800    0 0 0 1
G00651           CIRCULAR 1.000    0 0 0 1
G00652           CIRCULAR 1.000    0 0 0 1
G00653           CIRCULAR 0.800    0 0 0 1
G00654           CIRCULAR 0.800    0 0 0 1
G00655           CIRCULAR 0.800    0 0 0 1
G00656           CIRCULAR 0.800    0 0 0 1
G00657           CIRCULAR 0.800    0 0 0 1
G00658           CIRCULAR 0.800    0 0 0 1
G00659           CIRCULAR 0.800    0 0 0 1
G00660           CIRCULAR 1.000    0 0 0 1
G00661           CIRCULAR 0.800    0 0 0 1
G00662           CIRCULAR 0.800    0 0 0 1
G00663           CIRCULAR 0.800    0 0 0 1
G00664           CIRCULAR 0.800    0 0 0 1
G00665           CIRCULAR 0.800    0 0 0 1
G00666           CIRCULAR 0.800    0 0 0 1
G00667           CIRCULAR 1.000    0 0 0 1
G00668           CIRCULAR 1.000    0 0 0 1
G00669           CIRCULAR 1.000    0 0 0 1
G00670           CIRCULAR 1.000    0 0 0 1
G00671           CIRCULAR 0.800    0 0 0 1
G00672           CIRCULAR 0.800    0 0 0 1
G00673           CIRCULAR 1.000    0 0 0 1
G00674           CIRCULAR 1.000    0 0 0 1
G00675           CIRCULAR 1.000    0 0 0 1
G00676           CIRCULAR 1.000    0 0 0 1
G00677           CIRCULAR 1.000    0 0 0 1
G00678           CIRCULAR 1.000    0 0 0 1
G00679           CIRCULAR 1.000    0 0 0 1
G00680           CIRCULAR 0.800    0 0 0 1
G00681           CIRCULAR 1.200    0 0 0 1
G00682           CIRCULAR 0.800    0 0 0 1
G00683           CIRCULAR 0.800    0 0 0 1
G00684           CIRCULAR 1.000    0 0 0 1
G00685           CIRCULAR 0.800    0 0 0 1
G00686           CIRCULAR 0.800    0 0 0 1
G00687           CIRCULAR 0.800    0 0 0 1
G00688           CIRCULAR 0.800    0 0 0 1
G00689           CIRCULAR 0.800    0 0 0 1
G00690           CIRCULAR 0.800    0 0 0 1
G00691           CIRCULAR 1.000    0 0 0 1
G00692           CIRCULAR 0.800    0 0 0 1
G00693           CIRCULAR 0.800    0 0 0 1
G00694           CIRCULAR 0.800    0 0 0 1
G00695           CIRCULAR 0.800    0 0 0 1
G00696           CIRCULAR 1.000    0 0 0 1
G00697           CIRCULAR 1.000    0 0 0 1
G00698           CIRCULAR 1.000    0 0 0 1
G00699           CIRCULAR 0.800    0 0 0 1
G00700           CIRCULAR 0.800    0 0 0 1
G00701           CIRCULAR 0.800    0 0 0 1
G00702           CIRCULAR 0.800    0 0 0 1
G00703           CIRCULAR 0.800    0 0 0 1
G00704           CIRCULAR 0.800    0 0 0 1
G00705           CIRCULAR 0.800    0 0 0 1
G00706           CIRCULAR 0.800    0 0 0 1
G00707           CIRCULAR 0.800    0 0 0 1
G00708           CIRCULAR 0.800    0 0 0 1
G00709           CIRCULAR 1.000    0 0 0 1
G00710           CIRCULAR 1.000    0 0 0 1
G00711           CIRCULAR 0.800    0 0 0 1
G00712           CIRCULAR 0.800    0 0 0 1
G00713           CIRCULAR 0.800    0 0 0 1
G00714           CIRCULAR 0.800    0 0 0 1
G00715           CIRCULAR 0.800    0 0 0 1
G00716           CIRCULAR 0.800    0 0 0 1
G00717           CIRCULAR 0.800    0 0 0 1
G00718           CIRCULAR 0.800    0 0 0 1
G00719           CIRCULAR 0.800    0 0 0 1
G00720           CIRCULAR 0.800    0 0 0 1
G00721           CIRCULAR 0.800    0 0 0 1
G00722           CIRCULAR 0.800    0 0 0 1
G00723           CIRCULAR 0.800    0 0 0 1
G00724           CIRCULAR 1.000    0 0 0 1
G00725           CIRCULAR 1.000    0 0 0 1
G00726           CIRCULAR 1.000    0 0 0 1
G00727           CIRCULAR 0.800    0 0 0 1
G00728           CIRCULAR 0.800    0 0 0 1
G00729           CIRCULAR 0.800    0 0 0 1
G00730           CIRCULAR 0.800    0 0 0 1
G00731           CIRCULAR 0.800    0 0 0 1
G00732           CIRCULAR 0.800    0 0 0 1
G00733           CIRCULAR 0.800    0 0 0 1
G00734           CIRCULAR 0.800    0 0 0 1
G00735           CIRCULAR 0.800    0 0 0 1
G00736           CIRCULAR 0.800    0 0 0 1
G00737           CIRCULAR 0.800    0 0 0 1
G00738           CIRCULAR 0.800    0 0 0 1
G00739           CIRCULAR 0.800    0 0 0 1
G00740           CIRCULAR 0.800    0 0 0 1
G00741           CIRCULAR 0.800    0 0 0 1
G00742           CIRCULAR 0.800    0 0 0 1
G00743           CIRCULAR 0.800    0 0 0 1
G00744           CIRCULAR 0.800    0 0 0 1
G00745           CIRCULAR 0.800    0 0 0 1
G00746           CIRCULAR 0.800    0 0 0 1
G00747           CIRCULAR 0.800    0 0 0 1
G00748           CIRCULAR 1.000    0 0 0 1
G00749           CIRCULAR 0.800    0 0 0 1
G00750           CIRCULAR 0.800    0 0 0 1
G00751           CIRCULAR 1.000    0 0 0 1
G00752           CIRCULAR 0.800    0 0 0 1
G00753           CIRCULAR 0.800    0 0 0 1
G00754           CIRCULAR 0.800    0 0 0 1
G00755           CIRCULAR 0.800    0 0 0 1
G00756           CIRCULAR 1.000    0 0 0 1
G00757           CIRCULAR 0.800    0 0 0 1
G00758           CIRCULAR 0.800    0 0 0 1
G00759           CIRCULAR 0.800    0 0 0 1
G00760           CIRCULAR 0.800    0 0 0 1
G00761           CIRCULAR 0.800    0 0 0 1
G00762           CIRCULAR 0.800    0 0 0 1
G00763           CIRCULAR 0.800    0 0 0 1
G00764           CIRCULAR 0.800    0 0 0 1
G00765           CIRCULAR 0.800    0 0 0 1
G00766           CIRCULAR 0.800    0 0 0 1
G00767           CIRCULAR 0.800    0 0 0 1
G00768           CIRCULAR 0.800    0 0 0 1
G00769           CIRCULAR 0.800    0 0 0 1
G00770           CIRCULAR 1.000    0 0 0 1
G00771           CIRCULAR 0.800    0 0 0 1
G00772           CIRCULAR 0.800    0 0 0 1
G00773           CIRCULAR 0.800    0 0 0 1
G00774           CIRCULAR 0.800    0 0 0 1
G00775           CIRCULAR 0.800    0 0 0 1
G00776           CIRCULAR 0.800    0 0 0 1
G00777           CIRCULAR 0.800    0 0 0 1
G00778           CIRCULAR 0.800    0 0 0 1
G00779           CIRCULAR 1.000    0 0 0 1
G00780           CIRCULAR 0.800    0 0 0 1
G00781           CIRCULAR 0.800    0 0 0 1
G00782           CIRCULAR 0.800    0 0 0 1
G00783           CIRCULAR 1.000    0 0 0 1
G00784           CIRCULAR 0.800    0 0 0 1
G00785           CIRCULAR 0.800    0 0 0 1
G00786           CIRCULAR 0.800    0 0 0 1
G00787           CIRCULAR 0.800    0 0 0 1
G00788           CIRCULAR 0.800    0 0 0 1
G00789           CIRCULAR 0.800    0 0 0 1
G00790           CIRCULAR 0.800    0 0 0 1
G00791           CIRCULAR 0.800    0 0 0 1
G00792           CIRCULAR 0.800    0 0 0 1
G00793           CIRCULAR 0.800    0 0 0 1
G00794           CIRCULAR 0.800    0 0 0 1
G00795           CIRCULAR 0.800    0 0 0 1
G00796           CIRCULAR 0.800    0 0 0 1
G00797           CIRCULAR 0.800    0 0 0 1
G00798           CIRCULAR 1.000    0 0 0 1
G00799           CIRCULAR 0.800    0 0 0 1
G00800           CIRCULAR 0.800    0 0 0 1
G00801           CIRCULAR 0.800    0 0 0 1
G00802           CIRCULAR 0.800    0 0 0 1
G00803           CIRCULAR 0.800    0 0 0 1
G00804           CIRCULAR 0.800    0 0 0 1
G00805           CIRCULAR 0.800    0 0 0 1
G00806           CIRCULAR 0.800    0 0 0 1
G00807           CIRCULAR 0.800    0 0 0 1
G00808           CIRCULAR 0.800    0 0 0 1
G00809           CIRCULAR 0.800    0 0 0 1
G00810           CIRCULAR 0.800    0 0 0 1
G00811           CIRCULAR 0.800    0 0 0 1
G00812           CIRCULAR 0.800    0 0 0 1
G00813           CIRCULAR 0.800    0 0 0 1
G00814           CIRCULAR 0.800    0 0 0 1
G00815           CIRCULAR 1.000    0 0 0 1
G00816           CIRCULAR 0.800    0 0 0 1
G00817           CIRCULAR 0.800    0 0 0 1
G00818           CIRCULAR 0.800    0 0 0 1
G00819           CIRCULAR 0.800    0 0 0 1
G00820           CIRCULAR 0.800    0 0 0 1
G00821           CIRCULAR 0.800    0 0 0 1
G00822           CIRCULAR 0.800    0 0 0 1
G00823           CIRCULAR 0.800    0 0 0 1
G00824           CIRCULAR 0.800    0 0 0 1
G00825           CIRCULAR 1.000    0 0 0 1
G00826           CIRCULAR 1.000    0 0 0 1
G00827           CIRCULAR 0.800    0 0 0 1
G00828           CIRCULAR 0.800    0 0 0 1
G00829           CIRCULAR 0.800    0 0 0 1
G00830           CIRCULAR 0.800    0 0 0 1
G00831           CIRCULAR 0.800    0 0 0 1
G00832           CIRCULAR 0.800    0 0 0 1
G00833           CIRCULAR 0.800    0 0 0 1
G00834           CIRCULAR 0.800    0 0 0 1
G00835           CIRCULAR 0.800    0 0 0 1
G00836           CIRCULAR 0.800    0 0 0 1
G00837           CIRCULAR 0.800    0 0 0 1
G00838           CIRCULAR 0.800    0 0 0 1
G00839           CIRCULAR 0.800    0 0 0 1
G00840           CIRCULAR 0.800    0 0 0 1
G00841           CIRCULAR 0.800    0 0 0 1
G00842           CIRCULAR 0.800    0 0 0 1
G00843           CIRCULAR 0.800    0 0 0 1
G00844           CIRCULAR 0.800    0 0 0 1
G00845           CIRCULAR 0.800    0 0 0 1
G00846           CIRCULAR 0.800    0 0 0 1
G00847           CIRCULAR 0.800    0 0 0 1
G00848           CIRCULAR 0.800    0 0 0 1
G00849           CIRCULAR 0.800    0 0 0 1
G00850           CIRCULAR 0.800    0 0 0 1
G00851           CIRCULAR 0.800    0 0 0 1
G00852           CIRCULAR 0.800    0 0 0 1
G00853           CIRCULAR 1.000    0 0 0 1
G00854           CIRCULAR 0.800    0 0 0 1
G00855           CIRCULAR 1.000    0 0 0 1
G00856           CIRCULAR 0.800    0 0 0 1
G00857           CIRCULAR 0.800    0 0 0 1
G00858           CIRCULAR 0.800    0 0 0 1
G00859           CIRCULAR 0.800    0 0 0 1
G00860           CIRCULAR 0.800    0 0 0 1
G00861           CIRCULAR 0.800    0 0 0 1
G00862           CIRCULAR 0.800    0 0 0 1
G00863           CIRCULAR 0.800    0 0 0 1
G00864           CIRCULAR 0.800    0 0 0 1
G00865           CIRCULAR 0.800    0 0 0 1
G00866           CIRCULAR 0.800    0 0 0 1
G00867           CIRCULAR 0.800    0 0 0 1
G00868           CIRCULAR 0.800    0 0 0 1
G00869           CIRCULAR 0.800    0 0 0 1
G00870           CIRCULAR 0.800    0 0 0 1
G00871           CIRCULAR 0.800    0 0 0 1
G00872           CIRCULAR 0.800    0 0 0 1
G00873           CIRCULAR 0.800    0 0 0 1
G00874           CIRCULAR 1.000    0 0 0 1
G00875           CIRCULAR 0.800    0 0 0 1
G00876           CIRCULAR 0.800    0 0 0 1
G00877           CIRCULAR 0.800    0 0 0 1
G00878           CIRCULAR 0.800    0 0 0 1
G00879           CIRCULAR 0.800    0 0 0 1
G00880           CIRCULAR 0.800    0 0 0 1
G00881           CIRCULAR 1.000    0 0 0 1
G00882           CIRCULAR 0.800    0 0 0 1
G00883           CIRCULAR 0.800    0 0 0 1
G00884           CIRCULAR 0.800    0 0 0 1
G00885           CIRCULAR 1.000    0 0 0 1
G00886           CIRCULAR 1.000    0 0 0 1
G00887           CIRCULAR 0.800    0 0 0 1
G00888           CIRCULAR 0.800    0 0 0 1
G00889           CIRCULAR 0.800    0 0 0 1
G00890           CIRCULAR 0.800    0 0 0 1
G00891           CIRCULAR 0.800    0 0 0 1
G00892           CIRCULAR 0.800    0 0 0 1
G00893           CIRCULAR 0.800    0 0 0 1
G00894           CIRCULAR 0.800    0 0 0 1
G00895           CIRCULAR 0.800    0 0 0 1
G00896           CIRCULAR 0.800    0 0 0 1
G00897           CIRCULAR 0.800    0 0 0 1
G00898           CIRCULAR 0.800    0 0 0 1
G00899           CIRCULAR 0.800    0 0 0 1
G00900           CIRCULAR 0.800    0 0 0 1
G00901           CIRCULAR 0.800    0 0 0 1
G00902           CIRCULAR 0.800    0 0 0 1
G00903           CIRCULAR 0.800    0 0 0 1
G00904           CIRCULAR 0.800    0 0 0 1
G00905           CIRCULAR 0.800    0 0 0 1
G00906           CIRCULAR 0.800    0 0 0 1
G00907           CIRCULAR 0.800    0 0 0 1
G00908           CIRCULAR 0.800    0 0 0 1
G00909           CIRCULAR 0.800    0 0 0 1
G00910           CIRCULAR 0.800    0 0 0 1
G00911           CIRCULAR 0.800    0 0 0 1
G00912           CIRCULAR 0.800    0 0 0 1
G00913           CIRCULAR 1.000    0 0 0 1
G00914           CIRCULAR 0.800    0 0 0 1
G00915           CIRCULAR 0.800    0 0 0 1
G00916           CIRCULAR 0.800    0 0 0 1
G00917           CIRCULAR 0.800    0 0 0 1
G00918           CIRCULAR 0.800    0 0 0 1
G00919           CIRCULAR 0.800    0 0 0 1
G00920           CIRCULAR 0.800    0 0 0 1
G00921           CIRCULAR 0.800    0 0 0 1
G00922           CIRCULAR 1.000    0 0 0 1
G00923           CIRCULAR 0.800    0 0 0 1
G00924           CIRCULAR 0.800    0 0 0 1
G00925           CIRCULAR 1.000    0 0 0 1
G00926           CIRCULAR 0.800    0 0 0 1
G00927           CIRCULAR 0.800    0 0 0 1
G00928           CIRCULAR 0.800    0 0 0 1
G00929           CIRCULAR 0.800    0 0 0 1
G00930           CIRCULAR 0.800    0 0 0 1
G00931           CIRCULAR 0.800    0 0 0 1
G00932           CIRCULAR 1.000    0 0 0 1
G00933           CIRCULAR 1.000    0 0 0 1
G00934           CIRCULAR 0.800    0 0 0 1
G00935           CIRCULAR 1.000    0 0 0 1
G00936           CIRCULAR 0.800    0 0 0 1
G00937           CIRCULAR 0.800    0 0 0 1
G00938           CIRCULAR 0.800    0 0 0 1
G00939           CIRCULAR 0.800    0 0 0 1
G00940           CIRCULAR 0.800    0 0 0 1
G00941           CIRCULAR 0.800    0 0 0 1
G00942           CIRCULAR 0.800    0 0 0 1
G00943           CIRCULAR 0.800    0 0 0 1
G00944           CIRCULAR 0.800    0 0 0 1
G00945           CIRCULAR 0.800    0 0 0 1
G00946           CIRCULAR 0.800    0 0 0 1
G00947           CIRCULAR 0.800    0 0 0 1
G00948           CIRCULAR 0.800    0 0 0 1
G00949           CIRCULAR 0.800    0 0 0 1
G00950           CIRCULAR 0.800    0 0 0 1
G00951           CIRCULAR 0.800    0 0 0 1
G00952           CIRCULAR 1.000    0 0 0 1
G00953           CIRCULAR 0.800    0 0 0 1
G00954           CIRCULAR 0.800    0 0 0 1
G00955           CIRCULAR 0.800    0 0 0 1
G00956           CIRCULAR 1.000    0 0 0 1
G00957           CIRCULAR 0.800    0 0 0 1
G00958           CIRCULAR 1.000    0 0 0 1
G00959           CIRCULAR 1.000    0 0 0 1
G00960           CIRCULAR 1.000    0 0 0 1
G00961           CIRCULAR 0.800    0 0 0 1
G00962           CIRCULAR 0.800    0 0 0 1
G00963           CIRCULAR 0.800    0 0 0 1
G00964           CIRCULAR 0.800    0 0 0 1
G00965           CIRCULAR 1.000    0 0 0 1
G00966           CIRCULAR 0.800    0 0 0 1
G00967           CIRCULAR 0.800    0 0 0 1
G00968           CIRCULAR 0.800    0 0 0 1
G00969           CIRCULAR 0.800    0 0 0 1
G00970           CIRCULAR 0.800    0 0 0 1
G00971           CIRCULAR 0.800    0 0 0 1
G00972           CIRCULAR 0.800    0 0 0 1
G00973           CIRCULAR 0.800    0 0 0 1
G00974           CIRCULAR 0.800    0 0 0 1
G00975           CIRCULAR 0.800    0 0 0 1
G00976           CIRCULAR 0.800    0 0 0 1
G00977           CIRCULAR 0.800    0 0 0 1
G00978           CIRCULAR 0.800    0 0 0 1
G00979           CIRCULAR 0.800    0 0 0 1
G00980           CIRCULAR 0.800    0 0 0 1
G00981           CIRCULAR 0.800    0 0 0 1
G00982           CIRCULAR 0.800    0 0 0 1
G00983           CIRCULAR 0.800    0 0 0 1
G00984           CIRCULAR 0.800    0 0 0 1
G00985           CIRCULAR 0.800    0 0 0 1
G00986           CIRCULAR 0.800    0 0 0 1
G00987           CIRCULAR 0.800    0 0 0 1
G00988           CIRCULAR 0.800    0 0 0 1
G00989           CIRCULAR 0.800    0 0 0 1
G00990           CIRCULAR 0.800    0 0 0 1
G00991           CIRCULAR 0.800    0 0 0 1
G00992           CIRCULAR 0.800    0 0 0 1
G00993           CIRCULAR 0.800    0 0 0 1
G00994           CIRCULAR 0.800    0 0 0 1
G00995           CIRCULAR 0.800    0 0 0 1
G00996           CIRCULAR 0.800    0 0 0 1
G00997           CIRCULAR 0.800    0 0 0 1
G00998           CIRCULAR 0.800    0 0 0 1
G00999           CIRCULAR 0.800    0 0 0 1
G01000           CIRCULAR 0.800    0 0 0 1
G01001           CIRCULAR 0.800    0 0 0 1
G01002           CIRCULAR 0.800    0 0 0 1
G01003           CIRCULAR 0.800    0 0 0 1
G01004           CIRCULAR 0.800    0 0 0 1
G01005           CIRCULAR 0.800    0 0 0 1
G01006           CIRCULAR 1.000    0 0 0 1
G01007           CIRCULAR 1.000    0 0 0 1
G01008           CIRCULAR 1.000    0 0 0 1
G01009           CIRCULAR 0.800    0 0 0 1
G01010           CIRCULAR 0.800    0 0 0 1
G01011           CIRCULAR 0.800    0 0 0 1
G01012           CIRCULAR 0.800    0 0 0 1
G01013           CIRCULAR 0.800    0 0 0 1
G01014           CIRCULAR 0.800    0 0 0 1
G01015           CIRCULAR 0.800    0 0 0 1
G01016           CIRCULAR 1.000    0 0 0 1
G01017           CIRCULAR 0.800    0 0 0 1
G01018           CIRCULAR 0.800    0 0 0 1
G01019           CIRCULAR 0.800    0 0 0 1
G01020           CIRCULAR 0.800    0 0 0 1
G01021           CIRCULAR 0.800    0 0 0 1
G01022           CIRCULAR 0.800    0 0 0 1
G01023           CIRCULAR 0.800    0 0 0 1
G01024           CIRCULAR 0.800    0 0 0 1
G01025           CIRCULAR 0.800    0 0 0 1
G01026           CIRCULAR 0.800    0 0 0 1
G01027           CIRCULAR 0.800    0 0 0 1
G01028           CIRCULAR 0.800    0 0 0 1
G01029           CIRCULAR 0.800    0 0 0 1
G01030           CIRCULAR 0.800    0 0 0 1
G01031           CIRCULAR 1.000    0 0 0 1
G01032           CIRCULAR 0.800    0 0 0 1
G01033           CIRCULAR 0.800    0 0 0 1
G01034           CIRCULAR 0.800    0 0 0 1
G01035           CIRCULAR 0.800    0 0 0 1
G01036           CIRCULAR 0.800    0 0 0 1
G01037           CIRCULAR 0.800    0 0 0 1
G01038           CIRCULAR 0.800    0 0 0 1
G01039           CIRCULAR 0.800    0 0 0 1
G01040           CIRCULAR 0.800    0 0 0 1
G01041           CIRCULAR 0.800    0 0 0 1
G01042           CIRCULAR 0.800    0 0 0 1
G01043           CIRCULAR 0.800    0 0 0 1
G01044           CIRCULAR 1.000    0 0 0 1
G01045           CIRCULAR 1.000    0 0 0 1
G01046           CIRCULAR 0.800    0 0 0 1
G01047           CIRCULAR 0.800    0 0 0 1
G01048           CIRCULAR 0.800    0 0 0 1
G01049           CIRCULAR 0.800    0 0 0 1
G01050           CIRCULAR 0.800    0 0 0 1
G01051           CIRCULAR 1.000    0 0 0 1
G01052           CIRCULAR 0.800    0 0 0 1
G01053           CIRCULAR 1.000    0 0 0 1
G01054           CIRCULAR 0.800    0 0 0 1
G01055           CIRCULAR 0.800    0 0 0 1
G01056           CIRCULAR 0.800    0 0 0 1
G01057           CIRCULAR 0.800    0 0 0 1
G01058           CIRCULAR 0.800    0 0 0 1
G01059           CIRCULAR 0.800    0 0 0 1
G01060           CIRCULAR 0.800    0 0 0 1
G01061           CIRCULAR 1.000    0 0 0 1
G01062           CIRCULAR 1.000    0 0 0 1
G01063           CIRCULAR 0.800    0 0 0 1
G01064           CIRCULAR 1.000    0 0 0 1
G01065           CIRCULAR 1.000    0 0 0 1
G01066           CIRCULAR 0.800    0 0 0 1
G01067           CIRCULAR 0.800    0 0 0 1
G01068           CIRCULAR 0.800    0 0 0 1
G01069           CIRCULAR 0.800    0 0 0 1
G01070           CIRCULAR 0.800    0 0 0 1
G01071           CIRCULAR 0.800    0 0 0 1
G01072           CIRCULAR 0.800    0 0 0 1
G01073           CIRCULAR 0.800    0 0 0 1
G01074           CIRCULAR 1.000    0 0 0 1
G01075           CIRCULAR 0.800    0 0 0 1
G01076           CIRCULAR 0.800    0 0 0 1
G01077           CIRCULAR 0.800    0 0 0 1
G01078           CIRCULAR 0.800    0 0 0 1
G01079           CIRCULAR 0.800    0 0 0 1
G01080           CIRCULAR 0.800    0 0 0 1
G01081           CIRCULAR 0.800    0 0 0 1
G01082           CIRCULAR 0.800    0 0 0 1
G01083           CIRCULAR 0.800    0 0 0 1
G01084           CIRCULAR 0.800    0 0 0 1
G01085           CIRCULAR 0.800    0 0 0 1
G01086           CIRCULAR 1.000    0 0 0 1
G01087           CIRCULAR 0.800    0 0 0 1
G01088           CIRCULAR 1.000    0 0 0 1
G01089           CIRCULAR 0.800    0 0 0 1
G01090           CIRCULAR 0.800    0 0 0 1
G01091           CIRCULAR 0.800    0 0 0 1
G01092           CIRCULAR 0.800    0 0 0 1
G01093           CIRCULAR 0.800    0 0 0 1
G01094           CIRCULAR 0.800    0 0 0 1
G01095           CIRCULAR 0.800    0 0 0 1
G01096           CIRCULAR 0.800    0 0 0 1
G01097           CIRCULAR 0.800    0 0 0 1
G01098           CIRCULAR 0.800    0 0 0 1
G01099           CIRCULAR 0.800    0 0 0 1
G01100           CIRCULAR 0.800    0 0 0 1
G01101           CIRCULAR 0.800    0 0 0 1
G01102           CIRCULAR 0.800    0 0 0 1
G01103           CIRCULAR 0.800    0 0 0 1
G01104           CIRCULAR 1.000    0 0 0 1
G01105           CIRCULAR 1.000    0 0 0 1
G01106           CIRCULAR 1.000    0 0 0 1
G01107           CIRCULAR 0.800    0 0 0 1
G01108           CIRCULAR 0.800    0 0 0 1
G01109           CIRCULAR 0.800    0 0 0 1
G01110           CIRCULAR 0.800    0 0 0 1
G01111           CIRCULAR 0.800    0 0 0 1
G01112           CIRCULAR 0.800    0 0 0 1
G01113           CIRCULAR 0.800    0 0 0 1
G01114           CIRCULAR 0.800    0 0 0 1
G01115           CIRCULAR 0.800    0 0 0 1
G01116           CIRCULAR 1.000    0 0 0 1
G01117           CIRCULAR 0.800    0 0 0 1
G01118           CIRCULAR 0.800    0 0 0 1
G01119           CIRCULAR 0.800    0 0 0 1
G01120           CIRCULAR 0.800    0 0 0 1
G01121           CIRCULAR 0.800    0 0 0 1
G01122           CIRCULAR 0.800    0 0 0 1
G01123           CIRCULAR 0.800    0 0 0 1
G01124           CIRCULAR 0.800    0 0 0 1
G01125           CIRCULAR 0.800    0 0 0 1
G01126           CIRCULAR 0.800    0 0 0 1
G01127           CIRCULAR 0.800    0 0 0 1
G01128           CIRCULAR 0.800    0 0 0 1
G01129           CIRCULAR 0.800    0 0 0 1
G01130           CIRCULAR 0.800    0 0 0 1
G01131           CIRCULAR 0.800    0 0 0 1
G01132           CIRCULAR 0.800    0 0 0 1
G01133           CIRCULAR 1.000    0 0 0 1
G01134           CIRCULAR 0.800    0 0 0 1
G01135           CIRCULAR 0.800    0 0 0 1
G01136           CIRCULAR 0.800    0 0 0 1
G01137           CIRCULAR 0.800    0 0 0 1
G01138           CIRCULAR 0.800    0 0 0 1
G01139           CIRCULAR 0.800    0 0 0 1
G01140           CIRCULAR 0.800    0 0 0 1
G01141           CIRCULAR 0.800    0 0 0 1
G01142           CIRCULAR 1.000    0 0 0 1
G01143           CIRCULAR 0.800    0 0 0 1
G01144           CIRCULAR 1.000    0 0 0 1
G01145           CIRCULAR 0.800    0 0 0 1
G01146           CIRCULAR 0.800    0 0 0 1
G01147           CIRCULAR 0.800    0 0 0 1
G01148           CIRCULAR 0.800    0 0 0 1
G01149           CIRCULAR 0.800    0 0 0 1
G01150           CIRCULAR 0.800    0 0 0 1
G01151           CIRCULAR 0.800    0 0 0 1
G01152           CIRCULAR 0.800    0 0 0 1
G01153           CIRCULAR 0.800    0 0 0 1
G01154           CIRCULAR 0.800    0 0 0 1
G01155           CIRCULAR 0.800    0 0 0 1
G01156           CIRCULAR 0.800    0 0 0 1
G01157           CIRCULAR 0.800    0 0 0 1
G01158           CIRCULAR 0.800    0 0 0 1
G01159           CIRCULAR 1.000    0 0 0 1
G01160           CIRCULAR 0.800    0 0 0 1
G01161           CIRCULAR 0.800    0 0 0 1
G01162           CIRCULAR 0.800    0 0 0 1
G01163           CIRCULAR 0.800    0 0 0 1
G01164           CIRCULAR 1.000    0 0 0 1
G01165           CIRCULAR 1.000    0 0 0 1
G01166           CIRCULAR 0.800    0 0 0 1
G01167           CIRCULAR 0.800    0 0 0 1
G01168           CIRCULAR 0.800    0 0 0 1
G01169           CIRCULAR 0.800    0 0 0 1
G01170           CIRCULAR 0.800    0 0 0 1
G01171           CIRCULAR 0.800    0 0 0 1
G01172           CIRCULAR 0.800    0 0 0 1
G01173           CIRCULAR 0.800    0 0 0 1
G01174           CIRCULAR 0.800    0 0 0 1
G01175           CIRCULAR 0.800    0 0 0 1
G01176           CIRCULAR 0.800    0 0 0 1
G01177           CIRCULAR 0.800    0 0 0 1
G01178           CIRCULAR 1.000    0 0 0 1
G01179           CIRCULAR 0.800    0 0 0 1
G01180           CIRCULAR 0.800    0 0 0 1
G01181           CIRCULAR 0.800    0 0 0 1
G01182           CIRCULAR 0.800    0 0 0 1
G01183           CIRCULAR 0.800    0 0 0 1
G01184           CIRCULAR 0.800    0 0 0 1
G01185           CIRCULAR 0.800    0 0 0 1
G01186           CIRCULAR 0.800    0 0 0 1
G01187           CIRCULAR 0.800    0 0 0 1
G01188           CIRCULAR 0.800    0 0 0 1
G01189           CIRCULAR 0.800    0 0 0 1
G01190           CIRCULAR 0.800    0 0 0 1
G01191           CIRCULAR 1.000    0 0 0 1
G01192           CIRCULAR 0.800    0 0 0 1
G01193           CIRCULAR 0.800    0 0 0 1
G01194           CIRCULAR 0.800    0 0 0 1
G01195           CIRCULAR 0.800    0 0 0 1
G01196           CIRCULAR 0.800    0 0 0 1
G01197           CIRCULAR 0.800    0 0 0 1
G01198           CIRCULAR 0.800    0 0 0 1
G01199           CIRCULAR 1.000    0 0 0 1
G01200           CIRCULAR 0.800    0 0 0 1
G01201           CIRCULAR 0.800    0 0 0 1
G01202           CIRCULAR 0.800    0 0 0 1
G01203           CIRCULAR 0.800    0 0 0 1
G01204           CIRCULAR 0.800    0 0 0 1
G01205           CIRCULAR 0.800    0 0 0 1
G01206           CIRCULAR 0.800    0 0 0 1
G01207           CIRCULAR 0.800    0 0 0 1
G01208           CIRCULAR 0.800    0 0 0 1
G01209           CIRCULAR 0.800    0 0 0 1
G01210           CIRCULAR 0.800    0 0 0 1
G01211           CIRCULAR 0.800    0 0 0 1
G01212           CIRCULAR 0.800    0 0 0 1
G01213           CIRCULAR 0.800    0 0 0 1
G01214           CIRCULAR 0.800    0 0 0 1
G01215           CIRCULAR 1.000    0 0 0 1
G01216           CIRCULAR 1.000    0 0 0 1
G01217           CIRCULAR 0.800    0 0 0 1
G01218           CIRCULAR 1.000    0 0 0 1
G01219           CIRCULAR 0.800    0 0 0 1
G01220           CIRCULAR 0.800    0 0 0 1
G01221           CIRCULAR 0.800    0 0 0 1
G01222           CIRCULAR 0.800    0 0 0 1
G01223           CIRCULAR 0.800    0 0 0 1
G01224           CIRCULAR 0.800    0 0 0 1
G01225           CIRCULAR 0.800    0 0 0 1
G01226           CIRCULAR 0.800    0 0 0 1
G01227           CIRCULAR 0.800    0 0 0 1
G01228           CIRCULAR 0.800    0 0 0 1
G01229           CIRCULAR 0.800    0 0 0 1
G01230           CIRCULAR 0.800    0 0 0 1
G01231           CIRCULAR 0.800    0 0 0 1
G01232           CIRCULAR 0.800    0 0 0 1
G01233           CIRCULAR 1.000    0 0 0 1
G01234           CIRCULAR 0.800    0 0 0 1
G01235           CIRCULAR 0.800    0 0 0 1
G01236           CIRCULAR 0.800    0 0 0 1
G01237           CIRCULAR 0.800    0 0 0 1
G01238           CIRCULAR 0.800    0 0 0 1
G01239           CIRCULAR 0.800    0 0 0 1
G01240           CIRCULAR 0.800    0 0 0 1
G01241           CIRCULAR 0.800    0 0 0 1
G01242           CIRCULAR 0.800    0 0 0 1
G01243           CIRCULAR 0.800    0 0 0 1
G01244           CIRCULAR 0.800    0 0 0 1
G01245           CIRCULAR 0.800    0 0 0 1
G01246           CIRCULAR 0.800    0 0 0 1
G01247           CIRCULAR 0.800    0 0 0 1
G01248           CIRCULAR 0.800    0 0 0 1
G01249           CIRCULAR 0.800    0 0 0 1
G01250           CIRCULAR 0.800    0 0 0 1
G01251           CIRCULAR 0.800    0 0 0 1
G01252           CIRCULAR 0.800    0 0 0 1
G01253           CIRCULAR 1.000    0 0 0 1
G01254           CIRCULAR 0.800    0 0 0 1
G01255           CIRCULAR 0.800    0 0 0 1
G01256           CIRCULAR 0.800    0 0 0 1
G01257           CIRCULAR 0.800    0 0 0 1
G01258           CIRCULAR 1.200    0 0 0 1
G01259           CIRCULAR 0.800    0 0 0 1
G01260           CIRCULAR 0.800    0 0 0 1
G01261           CIRCULAR 0.800    0 0 0 1
G01262           CIRCULAR 0.800    0 0 0 1
G01263           CIRCULAR 0.800    0 0 0 1
G01264           CIRCULAR 0.800    0 0 0 1
G01265           CIRCULAR 0.800    0 0 0 1
G01266           CIRCULAR 0.800    0 0 0 1
G01267           CIRCULAR 0.800    0 0 0 1
G01268           CIRCULAR 0.800    0 0 0 1
G01269           CIRCULAR 0.800    0 0 0 1
G01270           CIRCULAR 0.800    0 0 0 1
G01271           CIRCULAR 0.800    0 0 0 1
G01272           CIRCULAR 0.800    0 0 0 1
G01273           CIRCULAR 0.800    0 0 0 1
G01274           CIRCULAR 0.800    0 0 0 1
G01275           CIRCULAR 0.800    0 0 0 1
G01276           CIRCULAR 0.800    0 0 0 1
G01277           CIRCULAR 1.000    0 0 0 1
G01278           CIRCULAR 0.800    0 0 0 1
G01279           CIRCULAR 1.000    0 0 0 1
G01280           CIRCULAR 0.800    0 0 0 1
G01281           CIRCULAR 0.800    0 0 0 1
G01282           CIRCULAR 0.800    0 0 0 1
G01283           CIRCULAR 0.800    0 0 0 1
G01284           CIRCULAR 0.800    0 0 0 1
G01285           CIRCULAR 0.800    0 0 0 1
G01286           CIRCULAR 0.800    0 0 0 1
G01287           CIRCULAR 0.800    0 0 0 1
G01288           CIRCULAR 0.800    0 0 0 1
G01289           CIRCULAR 0.800    0 0 0 1
G01290           CIRCULAR 0.800    0 0 0 1
G01291           CIRCULAR 0.800    0 0 0 1
G01292           CIRCULAR 0.800    0 0 0 1
G01293           CIRCULAR 0.800    0 0 0 1
G01294           CIRCULAR 0.800    0 0 0 1
G01295           CIRCULAR 0.800    0 0 0 1
G01296           CIRCULAR 0.800    0 0 0 1
G01297           CIRCULAR 0.800    0 0 0 1
G01298           CIRCULAR 0.800    0 0 0 1
G01299           CIRCULAR 0.800    0 0 0 1
G01300           CIRCULAR 0.800    0 0 0 1
G01301           CIRCULAR 0.800    0 0 0 1
G01302           CIRCULAR 0.800    0 0 0 1
G01303           CIRCULAR 0.800    0 0 0 1
G01304           CIRCULAR 0.800    0 0 0 1
G01305           CIRCULAR 0.800    0 0 0 1
G01306           CIRCULAR 0.800    0 0 0 1
G01307           CIRCULAR 1.000    0 0 0 1
G01308           CIRCULAR 1.000    0 0 0 1
G01309           CIRCULAR 0.800    0 0 0 1
G01310           CIRCULAR 0.800    0 0 0 1
G01311           CIRCULAR 0.800    0 0 0 1
G01312           CIRCULAR 0.800    0 0 0 1
G01313           CIRCULAR 1.000    0 0 0 1
G01314           CIRCULAR 1.000    0 0 0 1
G01315           CIRCULAR 0.800    0 0 0 1
G01316           CIRCULAR 0.800    0 0 0 1
G01317           CIRCULAR 0.800    0 0 0 1
G01318           CIRCULAR 0.800    0 0 0 1
G01319           CIRCULAR 0.800    0 0 0 1
G01320           CIRCULAR 0.800    0 0 0 1
G01321           CIRCULAR 0.800    0 0 0 1
G01322           CIRCULAR 0.800    0 0 0 1
G01323           CIRCULAR 1.000    0 0 0 1
G01324           CIRCULAR 0.800    0 0 0 1
G01325           CIRCULAR 0.800    0 0 0 1
G01326           CIRCULAR 0.800    0 0 0 1
G01327           CIRCULAR 0.800    0 0 0 1
G01328           CIRCULAR 0.800    0 0 0 1
G01329           CIRCULAR 0.800    0 0 0 1
G01330           CIRCULAR 0.800    0 0 0 1
G01331           CIRCULAR 0.800    0 0 0 1
G01332           CIRCULAR 0.800    0 0 0 1
G01333           CIRCULAR 0.800    0 0 0 1
G01334           CIRCULAR 0.800    0 0 0 1
G01335           CIRCULAR 0.800    0 0 0 1
G01336           CIRCULAR 0.800    0 0 0 1
G01337           CIRCULAR 1.000    0 0 0 1
G01338           CIRCULAR 0.800    0 0 0 1
G01339           CIRCULAR 0.800    0 0 0 1
G01340           CIRCULAR 0.800    0 0 0 1
G01341           CIRCULAR 1.000    0 0 0 1
G01342           CIRCULAR 1.000    0 0 0 1
G01343           CIRCULAR 0.800    0 0 0 1
G01344           CIRCULAR 1.000    0 0 0 1
G01345           CIRCULAR 0.800    0 0 0 1
G01346           CIRCULAR 0.800    0 0 0 1
G01347           CIRCULAR 0.800    0 0 0 1
G01348           CIRCULAR 0.800    0 0 0 1
G01349           CIRCULAR 0.800    0 0 0 1
G01350           CIRCULAR 0.800    0 0 0 1
G01351           CIRCULAR 0.800    0 0 0 1
G01352           CIRCULAR 0.800    0 0 0 1
G01353           CIRCULAR 1.000    0 0 0 1
G01354           CIRCULAR 0.800    0 0 0 1
G01355           CIRCULAR 0.800    0 0 0 1
G01356           CIRCULAR 1.000    0 0 0 1
G01357           CIRCULAR 0.800    0 0 0 1
G01358           CIRCULAR 0.800    0 0 0 1
G01359           CIRCULAR 0.800    0 0 0 1
G01360           CIRCULAR 0.800    0 0 0 1
G01361           CIRCULAR 0.800    0 0 0 1
G01362           CIRCULAR 0.800    0 0 0 1
G01363           CIRCULAR 0.800    0 0 0 1
G01364           CIRCULAR 0.800    0 0 0 1
G01365           CIRCULAR 0.800    0 0 0 1
G01366           CIRCULAR 0.800    0 0 0 1
G01367           CIRCULAR 0.800    0 0 0 1
G01368           CIRCULAR 0.800    0 0 0 1
G01369           CIRCULAR 0.800    0 0 0 1
G01370           CIRCULAR 0.800    0 0 0 1
G01371           CIRCULAR 1.000    0 0 0 1
G01372           CIRCULAR 0.800    0 0 0 1
G01373           CIRCULAR 0.800    0 0 0 1
G01374           CIRCULAR 0.800    0 0 0 1
G01375           CIRCULAR 0.800    0 0 0 1
G01376           CIRCULAR 0.800    0 0 0 1
G01377           CIRCULAR 0.800    0 0 0 1
G01378           CIRCULAR 0.800    0 0 0 1
G01379           CIRCULAR 0.800    0 0 0 1
G01380           CIRCULAR 0.800    0 0 0 1
G01381           CIRCULAR 0.800    0 0 0 1
G01382           CIRCULAR 0.800    0 0 0 1
G01383           CIRCULAR 0.800    0 0 0 1
G01384           CIRCULAR 0.800    0 0 0 1
G01385           CIRCULAR 0.800    0 0 0 1
G01386           CIRCULAR 0.800    0 0 0 1
G01387           CIRCULAR 0.800    0 0 0 1
G01388           CIRCULAR 0.800    0 0 0 1
G01389           CIRCULAR 0.800    0 0 0 1
G01390           CIRCULAR 0.800    0 0 0 1
G01391           CIRCULAR 0.800    0 0 0 1
G01392           CIRCULAR 0.800    0 0 0 1
G01393           CIRCULAR 1.000    0 0 0 1
G01394           CIRCULAR 1.000    0 0 0 1
G01395           CIRCULAR 0.800    0 0 0 1
G01396           CIRCULAR 1.000    0 0 0 1
G01397           CIRCULAR 1.000    0 0 0 1
G01398           CIRCULAR 1.000    0 0 0 1
G01399           CIRCULAR 0.800    0 0 0 1
G01400           CIRCULAR 0.800    0 0 0 1
G01401           CIRCULAR 0.800    0 0 0 1
G01402           CIRCULAR 0.800    0 0 0 1
G01403           CIRCULAR 0.800    0 0 0 1
G01404           CIRCULAR 0.800    0 0 0 1
G01405           CIRCULAR 0.800    0 0 0 1
G01406           CIRCULAR 0.800    0 0 0 1
G01407           CIRCULAR 0.800    0 0 0 1
G01408           CIRCULAR 0.800    0 0 0 1
G01409           CIRCULAR 0.800    0 0 0 1
G01410           CIRCULAR 0.800    0 0 0 1
G01411           CIRCULAR 0.800    0 0 0 1
G01412           CIRCULAR 0.800    0 0 0 1
G01413           CIRCULAR 0.800    0 0 0 1
G01414           CIRCULAR 0.800    0 0 0 1
G01415           CIRCULAR 0.800    0 0 0 1
G01416           CIRCULAR 0.800    0 0 0 1
G01417           CIRCULAR 1.000    0 0 0 1
G01418           CIRCULAR 0.800    0 0 0 1
G01419           CIRCULAR 0.800    0 0 0 1
G01420           CIRCULAR 1.000    0 0 0 1
G01421           CIRCULAR 0.800    0 0 0 1
G01422           CIRCULAR 1.000    0 0 0 1
G01423           CIRCULAR 1.000    0 0 0 1
G01424           CIRCULAR 0.800    0 0 0 1
G01425           CIRCULAR 0.800    0 0 0 1
G01426           CIRCULAR 0.800    0 0 0 1
G01427           CIRCULAR 0.800    0 0 0 1
G01428           CIRCULAR 0.800    0 0 0 1
G01429           CIRCULAR 0.800    0 0 0 1
G01430           CIRCULAR 0.800    0 0 0 1
G01431           CIRCULAR 0.800    0 0 0 1
G01432           CIRCULAR 1.000    0 0 0 1
G01433           CIRCULAR 0.800    0 0 0 1
G01434           CIRCULAR 0.800    0 0 0 1
G01435           CIRCULAR 0.800    0 0 0 1
G01436           CIRCULAR 0.800    0 0 0 1
G01437           CIRCULAR 0.800    0 0 0 1
G01438           CIRCULAR 0.800    0 0 0 1
G01439           CIRCULAR 0.800    0 0 0 1
G01440           CIRCULAR 0.800    0 0 0 1
G01441           CIRCULAR 0.800    0 0 0 1
G01442           CIRCULAR 0.800    0 0 0 1
G01443           CIRCULAR 0.800    0 0 0 1
G01444           CIRCULAR 0.800    0 0 0 1
G01445           CIRCULAR 0.800    0 0 0 1
G01446           CIRCULAR 0.800    0 0 0 1
G01447           CIRCULAR 0.800    0 0 0 1
G01448           CIRCULAR 0.800    0 0 0 1
G01449           CIRCULAR 0.800    0 0 0 1
G01450           CIRCULAR 0.800    0 0 0 1
G01451           CIRCULAR 0.800    0 0 0 1
G01452           CIRCULAR 0.800    0 0 0 1
G01453           CIRCULAR 0.800    0 0 0 1
G01454           CIRCULAR 0.800    0 0 0 1
G01455           CIRCULAR 0.800    0 0 0 1
G01456           CIRCULAR 0.800    0 0 0 1
G01457           CIRCULAR 0.800    0 0 0 1
G01458           CIRCULAR 0.800    0 0 0 1
G01459           CIRCULAR 0.800    0 0 0 1
G01460           CIRCULAR 0.800    0 0 0 1
G01461           CIRCULAR 0.800    0 0 0 1
G01462           CIRCULAR 0.800    0 0 0 1
G01463           CIRCULAR 0.800    0 0 0 1
G01464           CIRCULAR 0.800    0 0 0 1
G01465           CIRCULAR 0.800    0 0 0 1
G01466           CIRCULAR 0.800    0 0 0 1
G01467           CIRCULAR 0.800    0 0 0 1
G01468           CIRCULAR 0.800    0 0 0 1
G01469           CIRCULAR 0.800    0 0 0 1
G01470           CIRCULAR 0.800    0 0 0 1
G01471           CIRCULAR 0.800    0 0 0 1
G01472           CIRCULAR 0.800    0 0 0 1
G01473           CIRCULAR 0.800    0 0 0 1
G01474           CIRCULAR 0.800    0 0 0 1
G01475           CIRCULAR 0.800    0 0 0 1
G01476           CIRCULAR 0.800    0 0 0 1
G01477           CIRCULAR 0.800    0 0 0 1
G01478           CIRCULAR 0.800    0 0 0 1
G01479           CIRCULAR 0.800    0 0 0 1
G01480           CIRCULAR 0.800    0 0 0 1
G01481           CIRCULAR 0.800    0 0 0 1
G01482           CIRCULAR 0.800    0 0 0 1
G01483           CIRCULAR 1.000    0 0 0 1
G01484           CIRCULAR 0.800    0 0 0 1
G01485           CIRCULAR 0.800    0 0 0 1
G01486           CIRCULAR 0.800    0 0 0 1
G01487           CIRCULAR 0.800    0 0 0 1
G01488           CIRCULAR 0.800    0 0 0 1
G01489           CIRCULAR 0.800    0 0 0 1
G01490           CIRCULAR 1.000    0 0 0 1
G01491           CIRCULAR 1.000    0 0 0 1
G01492           CIRCULAR 0.800    0 0 0 1
G01493           CIRCULAR 0.800    0 0 0 1
G01494           CIRCULAR 0.800    0 0 0 1
G01495           CIRCULAR 0.800    0 0 0 1
G01496           CIRCULAR 0.800    0 0 0 1
G01497           CIRCULAR 0.800    0 0 0 1
G01498           CIRCULAR 1.000    0 0 0 1
G01499           CIRCULAR 0.800    0 0 0 1
G01500           CIRCULAR 0.800    0 0 0 1
G01501           CIRCULAR 0.800    0 0 0 1
G01502           CIRCULAR 1.200    0 0 0 1
G01503           CIRCULAR 1.000    0 0 0 1
G01504           CIRCULAR 1.000    0 0 0 1
G01505           CIRCULAR 0.800    0 0 0 1
G01506           CIRCULAR 0.800    0 0 0 1
G01507           CIRCULAR 0.800    0 0 0 1
G01508           CIRCULAR 0.800    0 0 0 1
G01509           CIRCULAR 0.800    0 0 0 1
G01510           CIRCULAR 0.800    0 0 0 1
G01511           CIRCULAR 0.800    0 0 0 1
G01512           CIRCULAR 0.800    0 0 0 1
G01513           CIRCULAR 1.000    0 0 0 1
G01514           CIRCULAR 0.800    0 0 0 1
G01515           CIRCULAR 0.800    0 0 0 1
G01516           CIRCULAR 0.800    0 0 0 1
G01517           CIRCULAR 0.800    0 0 0 1
G01518           CIRCULAR 1.000    0 0 0 1
G01519           CIRCULAR 1.000    0 0 0 1
G01520           CIRCULAR 0.800    0 0 0 1
G01521           CIRCULAR 0.800    0 0 0 1
G01522           CIRCULAR 1.000    0 0 0 1
G01523           CIRCULAR 0.800    0 0 0 1
G01524           CIRCULAR 0.800    0 0 0 1
G01525           CIRCULAR 0.800    0 0 0 1
G01526           CIRCULAR 0.800    0 0 0 1
G01527           CIRCULAR 0.800    0 0 0 1
G01528           CIRCULAR 0.800    0 0 0 1
G01529           CIRCULAR 0.800    0 0 0 1
G01530           CIRCULAR 0.800    0 0 0 1
G01531           CIRCULAR 1.000    0 0 0 1
G01532           CIRCULAR 0.800    0 0 0 1
G01533           CIRCULAR 0.800    0 0 0 1
G01534           CIRCULAR 0.800    0 0 0 1
G01535           CIRCULAR 1.000    0 0 0 1
G01536           CIRCULAR 0.800    0 0 0 1
G01537           CIRCULAR 0.800    0 0 0 1
G01538           CIRCULAR 0.800    0 0 0 1
G01539           CIRCULAR 0.800    0 0 0 1
G01540           CIRCULAR 0.800    0 0 0 1
G01541           CIRCULAR 1.000    0 0 0 1
G01542           CIRCULAR 1.000    0 0 0 1
G01543           CIRCULAR 1.000    0 0 0 1
G01544           CIRCULAR 1.200    0 0 0 1
G01545           CIRCULAR 0.800    0 0 0 1
G01546           CIRCULAR 0.800    0 0 0 1
G01547           CIRCULAR 0.800    0 0 0 1
G01548           CIRCULAR 0.800    0 0 0 1
G01549           CIRCULAR 0.800    0 0 0 1
G01550           CIRCULAR 0.800    0 0 0 1
G01551           CIRCULAR 0.800    0 0 0 1
G01552           CIRCULAR 0.800    0 0 0 1
G01553           CIRCULAR 0.800    0 0 0 1
G01554           CIRCULAR 1.000    0 0 0 1
G01555           CIRCULAR 0.800    0 0 0 1
G01556           CIRCULAR 0.800    0 0 0 1
G01557           CIRCULAR 1.000    0 0 0 1
G01558           CIRCULAR 0.800    0 0 0 1
G01559           CIRCULAR 1.000    0 0 0 1
G01560           CIRCULAR 0.800    0 0 0 1
G01561           CIRCULAR 0.800    0 0 0 1
G01562           CIRCULAR 0.800    0 0 0 1
G01563           CIRCULAR 0.800    0 0 0 1
G01564           CIRCULAR 0.800    0 0 0 1
G01565           CIRCULAR 1.000    0 0 0 1
G01566           CIRCULAR 0.800    0 0 0 1
G01567           CIRCULAR 0.800    0 0 0 1
G01568           CIRCULAR 1.000    0 0 0 1
G01569           CIRCULAR 1.000    0 0 0 1
G01570           CIRCULAR 0.800    0 0 0 1
G01571           CIRCULAR 0.800    0 0 0 1
G01572           CIRCULAR 0.800    0 0 0 1
G01573           CIRCULAR 1.000    0 0 0 1
G01574           CIRCULAR 1.000    0 0 0 1
G01575           CIRCULAR 0.800    0 0 0 1
G01576           CIRCULAR 0.800    0 0 0 1
G01577           CIRCULAR 0.800    0 0 0 1
G01578           CIRCULAR 0.800    0 0 0 1
G01579           CIRCULAR 0.800    0 0 0 1
G01580           CIRCULAR 0.800    0 0 0 1
G01581           CIRCULAR 0.800    0 0 0 1
G01582           CIRCULAR 0.800    0 0 0 1
G01583           CIRCULAR 0.800    0 0 0 1
G01584           CIRCULAR 0.800    0 0 0 1
G01585           CIRCULAR 0.800    0 0 0 1
G01586           CIRCULAR 0.800    0 0 0 1
G01587           CIRCULAR 0.800    0 0 0 1
G01588           CIRCULAR 0.800    0 0 0 1
G01589           CIRCULAR 0.800    0 0 0 1
G01590           CIRCULAR 0.800    0 0 0 1
G01591           CIRCULAR 0.800    0 0 0 1
G01592           CIRCULAR 0.800    0 0 0 1
G01593           CIRCULAR 0.800    0 0 0 1
G01594           CIRCULAR 0.800    0 0 0 1
G01595           CIRCULAR 0.800    0 0 0 1
G01596           CIRCULAR 0.800    0 0 0 1
G01597           CIRCULAR 0.800    0 0 0 1
G01598           CIRCULAR 0.800    0 0 0 1
G01599           CIRCULAR 0.800    0 0 0 1
G01600           CIRCULAR 0.800    0 0 0 1
G01601           CIRCULAR 0.800    0 0 0 1
G01602           CIRCULAR 1.000    0 0 0 1
G01603           CIRCULAR 0.800    0 0 0 1
G01604           CIRCULAR 0.800    0 0 0 1
G01605           CIRCULAR 0.800    0 0 0 1
G01606           CIRCULAR 1.000    0 0 0 1
G01607           CIRCULAR 1.000    0 0 0 1
G01608           CIRCULAR 1.000    0 0 0 1
G01609           CIRCULAR 0.800    0 0 0 1
G01610           CIRCULAR 0.800    0 0 0 1
G01611           CIRCULAR 0.800    0 0 0 1
G01612           CIRCULAR 0.800    0 0 0 1
G01613           CIRCULAR 0.800    0 0 0 1
G01614           CIRCULAR 0.800    0 0 0 1
G01615           CIRCULAR 0.800    0 0 0 1
G01616           CIRCULAR 0.800    0 0 0 1
G01617           CIRCULAR 0.800    0 0 0 1
G01618           CIRCULAR 0.800    0 0 0 1
G01619           CIRCULAR 0.800    0 0 0 1
G01620           CIRCULAR 0.800    0 0 0 1
G01621           CIRCULAR 0.800    0 0 0 1
G01622           CIRCULAR 0.800    0 0 0 1
G01623           CIRCULAR 0.800    0 0 0 1
G01624           CIRCULAR 1.000    0 0 0 1
G01625           CIRCULAR 1.000    0 0 0 1
G01626           CIRCULAR 0.800    0 0 0 1
G01627           CIRCULAR 1.000    0 0 0 1
G01628           CIRCULAR 0.800    0 0 0 1
G01629           CIRCULAR 0.800    0 0 0 1
G01630           CIRCULAR 0.800    0 0 0 1
G01631           CIRCULAR 0.800    0 0 0 1
G01632           CIRCULAR 0.800    0 0 0 1
G01633           CIRCULAR 0.800    0 0 0 1
G01634           CIRCULAR 0.800    0 0 0 1
G01635           CIRCULAR 0.800    0 0 0 1
G01636           CIRCULAR 0.800    0 0 0 1
G01637           CIRCULAR 0.800    0 0 0 1
G01638           CIRCULAR 1.000    0 0 0 1
G01639           CIRCULAR 0.800    0 0 0 1
G01640           CIRCULAR 0.800    0 0 0 1
G01641           CIRCULAR 0.800    0 0 0 1
G01642           CIRCULAR 0.800    0 0 0 1
G01643           CIRCULAR 0.800    0 0 0 1
G01644           CIRCULAR 0.800    0 0 0 1
G01645           CIRCULAR 1.000    0 0 0 1
G01646           CIRCULAR 0.800    0 0 0 1
G01647           CIRCULAR 0.800    0 0 0 1
G01648           CIRCULAR 0.800    0 0 0 1
G01649           CIRCULAR 0.800    0 0 0 1
G01650           CIRCULAR 0.800    0 0 0 1
G01651           CIRCULAR 0.800    0 0 0 1
G01652           CIRCULAR 0.800    0 0 0 1
G01653           CIRCULAR 0.800    0 0 0 1
G01654           CIRCULAR 0.800    0 0 0 1
G01655           CIRCULAR 0.800    0 0 0 1
G01656           CIRCULAR 0.800    0 0 0 1
G01657           CIRCULAR 0.800    0 0 0 1
G01658           CIRCULAR 0.800    0 0 0 1
G01659           CIRCULAR 0.800    0 0 0 1
G01660           CIRCULAR 0.800    0 0 0 1
G01661           CIRCULAR 0.800    0 0 0 1
G01662           CIRCULAR 1.000    0 0 0 1
G01663           CIRCULAR 1.000    0 0 0 1
G01664           CIRCULAR 0.800    0 0 0 1
G01665           CIRCULAR 0.800    0 0 0 1
G01666           CIRCULAR 0.800    0 0 0 1
G01667           CIRCULAR 1.000    0 0 0 1
G01668           CIRCULAR 0.800    0 0 0 1
G01669           CIRCULAR 0.800    0 0 0 1
G01670           CIRCULAR 0.800    0 0 0 1
G01671           CIRCULAR 0.800    0 0 0 1
G01672           CIRCULAR 0.800    0 0 0 1
G01673           CIRCULAR 0.800    0 0 0 1
G01674           CIRCULAR 0.800    0 0 0 1
G01675           CIRCULAR 0.800    0 0 0 1
G01676           CIRCULAR 1.000    0 0 0 1
G01677           CIRCULAR 0.800    0 0 0 1
G01678           CIRCULAR 0.800    0 0 0 1
G01679           CIRCULAR 0.800    0 0 0 1
G01680           CIRCULAR 1.000    0 0 0 1
G01681           CIRCULAR 0.800    0 0 0 1
G01682           CIRCULAR 0.800    0 0 0 1
G01683           CIRCULAR 0.800    0 0 0 1
G01684           CIRCULAR 0.800    0 0 0 1
G01685           CIRCULAR 0.800    0 0 0 1
G01686           CIRCULAR 0.800    0 0 0 1
G01687           CIRCULAR 0.800    0 0 0 1
G01688           CIRCULAR 0.800    0 0 0 1
G01689           CIRCULAR 0.800    0 0 0 1
G01690           CIRCULAR 0.800    0 0 0 1
G01691           CIRCULAR 0.800    0 0 0 1
G01692           CIRCULAR 0.800    0 0 0 1
G01693           CIRCULAR 1.000    0 0 0 1
G01694           CIRCULAR 1.000    0 0 0 1
G01695           CIRCULAR 0.800    0 0 0 1
G01696           CIRCULAR 0.800    0 0 0 1
G01697           CIRCULAR 1.000    0 0 0 1
G01698           CIRCULAR 1.000    0 0 0 1
G01699           CIRCULAR 0.800    0 0 0 1
G01700           CIRCULAR 0.800    0 0 0 1
G01701           CIRCULAR 0.800    0 0 0 1
G01702           CIRCULAR 0.800    0 0 0 1
G01703           CIRCULAR 0.800    0 0 0 1
G01704           CIRCULAR 0.800    0 0 0 1
G01705           CIRCULAR 0.800    0 0 0 1
G01706           CIRCULAR 0.800    0 0 0 1
G01707           CIRCULAR 0.800    0 0 0 1
G01708           CIRCULAR 1.000    0 0 0 1
G01709           CIRCULAR 0.800    0 0 0 1
G01710           CIRCULAR 0.800    0 0 0 1
G01711           CIRCULAR 0.800    0 0 0 1
G01712           CIRCULAR 0.800    0 0 0 1
G01713           CIRCULAR 1.000    0 0 0 1
G01714           CIRCULAR 0.800    0 0 0 1
G01715           CIRCULAR 0.800    0 0 0 1
G01716           CIRCULAR 0.800    0 0 0 1
G01717           CIRCULAR 0.800    0 0 0 1
G01718           CIRCULAR 0.800    0 0 0 1
G01719           CIRCULAR 1.000    0 0 0 1
G01720           CIRCULAR 0.800    0 0 0 1
G01721           CIRCULAR 0.800    0 0 0 1
G01722           CIRCULAR 1.000    0 0 0 1
G01723           CIRCULAR 0.800    0 0 0 1
G01724           CIRCULAR 0.800    0 0 0 1
G01725           CIRCULAR 0.800    0 0 0 1
G01726           CIRCULAR 0.800    0 0 0 1
G01727           CIRCULAR 0.800    0 0 0 1
G01728           CIRCULAR 0.800    0 0 0 1
G01729           CIRCULAR 0.800    0 0 0 1
G01730           CIRCULAR 0.800    0 0 0 1
G01731           CIRCULAR 0.800    0 0 0 1
G01732           CIRCULAR 0.800    0 0 0 1
G01733           CIRCULAR 0.800    0 0 0 1
G01734           CIRCULAR 0.800    0 0 0 1
G01735           CIRCULAR 0.800    0 0 0 1
G01736           CIRCULAR 0.800    0 0 0 1
G01737           CIRCULAR 0.800    0 0 0 1
G01738           CIRCULAR 0.800    0 0 0 1
G01739           CIRCULAR 0.800    0 0 0 1
G01740           CIRCULAR 0.800    0 0 0 1
G01741           CIRCULAR 0.800    0 0 0 1
G01742           CIRCULAR 0.800    0 0 0 1
G01743           CIRCULAR 0.800    0 0 0 1
G01744           CIRCULAR 0.800    0 0 0 1
G01745           CIRCULAR 0.800    0 0 0 1
G01746           CIRCULAR 0.800    0 0 0 1
G01747           CIRCULAR 0.800    0 0 0 1
G01748           CIRCULAR 0.800    0 0 0 1
G01749           CIRCULAR 0.800    0 0 0 1
G01750           CIRCULAR 0.800    0 0 0 1
G01751           CIRCULAR 1.000    0 0 0 1
G01752           CIRCULAR 1.000    0 0 0 1
G01753           CIRCULAR 0.800    0 0 0 1
G01754           CIRCULAR 0.800    0 0 0 1
G01755           CIRCULAR 0.800    0 0 0 1
G01756           CIRCULAR 0.800    0 0 0 1
G01757           CIRCULAR 0.800    0 0 0 1
G01758           CIRCULAR 0.800    0 0 0 1
G01759           CIRCULAR 0.800    0 0 0 1
G01760           CIRCULAR 0.800    0 0 0 1
G01761           CIRCULAR 0.800    0 0 0 1
G01762           CIRCULAR 0.800    0 0 0 1
G01763           CIRCULAR 0.800    0 0 0 1
G01764           CIRCULAR 1.000    0 0 0 1
G01765           CIRCULAR 0.800    0 0 0 1
G01766           CIRCULAR 0.800    0 0 0 1
G01767           CIRCULAR 0.800    0 0 0 1
G01768           CIRCULAR 1.000    0 0 0 1
G01769           CIRCULAR 0.800    0 0 0 1
G01770           CIRCULAR 0.800    0 0 0 1
G01771           CIRCULAR 0.800    0 0 0 1
G01772           CIRCULAR 0.800    0 0 0 1
G01773           CIRCULAR 0.800    0 0 0 1
G01774           CIRCULAR 0.800    0 0 0 1
G01775           CIRCULAR 0.800    0 0 0 1
G01776           CIRCULAR 1.000    0 0 0 1
G01777           CIRCULAR 0.800    0 0 0 1
G01778           CIRCULAR 1.000    0 0 0 1
G01779           CIRCULAR 0.800    0 0 0 1
G01780           CIRCULAR 1.000    0 0 0 1
G01781           CIRCULAR 0.800    0 0 0 1
G01782           CIRCULAR 0.800    0 0 0 1
G01783           CIRCULAR 0.800    0 0 0 1
G01784           CIRCULAR 0.800    0 0 0 1
G01785           CIRCULAR 0.800    0 0 0 1
G01786           CIRCULAR 0.800    0 0 0 1
G01787           CIRCULAR 0.800    0 0 0 1
G01788           CIRCULAR 0.800    0 0 0 1
G01789           CIRCULAR 0.800    0 0 0 1
G01790           CIRCULAR 0.800    0 0 0 1
G01791           CIRCULAR 0.800    0 0 0 1
G01792           CIRCULAR 0.800    0 0 0 1
G01793           CIRCULAR 0.800    0 0 0 1
G01794           CIRCULAR 0.800    0 0 0 1
G01795           CIRCULAR 0.800    0 0 0 1
G01796           CIRCULAR 0.800    0 0 0 1
G01797           CIRCULAR 0.800    0 0 0 1
G01798           CIRCULAR 0.800    0 0 0 1
G01799           CIRCULAR 0.800    0 0 0 1
G01800           CIRCULAR 0.800    0 0 0 1
G01801           CIRCULAR 0.800    0 0 0 1
G01802           CIRCULAR 0.800    0 0 0 1
G01803           CIRCULAR 0.800    0 0 0 1
G01804           CIRCULAR 0.800    0 0 0 1
G01805           CIRCULAR 0.800    0 0 0 1
G01806           CIRCULAR 1.000    0 0 0 1
G01807           CIRCULAR 0.800    0 0 0 1
G01808           CIRCULAR 0.800    0 0 0 1
G01809           CIRCULAR 0.800    0 0 0 1
G01810           CIRCULAR 0.800    0 0 0 1
G01811           CIRCULAR 0.800    0 0 0 1
G01812           CIRCULAR 0.800    0 0 0 1
G01813           CIRCULAR 0.800    0 0 0 1
G01814           CIRCULAR 0.800    0 0 0 1
G01815           CIRCULAR 0.800    0 0 0 1
G01816           CIRCULAR 0.800    0 0 0 1
G01817           CIRCULAR 0.800    0 0 0 1
G01818           CIRCULAR 0.800    0 0 0 1
G01819           CIRCULAR 0.800    0 0 0 1
G01820           CIRCULAR 0.800    0 0 0 1
G01821           CIRCULAR 0.800    0 0 0 1
G01822           CIRCULAR 0.800    0 0 0 1
G01823           CIRCULAR 0.800    0 0 0 1
G01824           CIRCULAR 0.800    0 0 0 1
G01825           CIRCULAR 0.800    0 0 0 1
G01826           CIRCULAR 0.800    0 0 0 1
G01827           CIRCULAR 0.800    0 0 0 1
G01828           CIRCULAR 0.800    0 0 0 1
G01829           CIRCULAR 0.800    0 0 0 1
G01830           CIRCULAR 0.800    0 0 0 1
G01831           CIRCULAR 0.800    0 0 0 1
G01832           CIRCULAR 0.800    0 0 0 1
G01833           CIRCULAR 1.000    0 0 0 1
G01834           CIRCULAR 0.800    0 0 0 1
G01835           CIRCULAR 0.800    0 0 0 1
G01836           CIRCULAR 1.000    0 0 0 1
G01837           CIRCULAR 0.800    0 0 0 1
G01838           CIRCULAR 0.800    0 0 0 1
G01839           CIRCULAR 0.800    0 0 0 1
G01840           CIRCULAR 0.800    0 0 0 1
G01841           CIRCULAR 0.800    0 0 0 1
G01842           CIRCULAR 0.800    0 0 0 1
G01843           CIRCULAR 1.000    0 0 0 1
G01844           CIRCULAR 0.800    0 0 0 1
G01845           CIRCULAR 0.800    0 0 0 1
G01846           CIRCULAR 0.800    0 0 0 1
G01847           CIRCULAR 0.800    0 0 0 1
G01848           CIRCULAR 0.800    0 0 0 1
G01849           CIRCULAR 0.800    0 0 0 1
G01850           CIRCULAR 0.800    0 0 0 1
G01851           CIRCULAR 0.800    0 0 0 1
G01852           CIRCULAR 0.800    0 0 0 1
G01853           CIRCULAR 0.800    0 0 0 1
G01854           CIRCULAR 0.800    0 0 0 1
G01855           CIRCULAR 0.800    0 0 0 1
G01856           CIRCULAR 0.800    0 0 0 1
G01857           CIRCULAR 0.800    0 0 0 1
G01858           CIRCULAR 0.800    0 0 0 1
G01859           CIRCULAR 0.800    0 0 0 1
G01860           CIRCULAR 1.000    0 0 0 1
G01861           CIRCULAR 0.800    0 0 0 1
G01862           CIRCULAR 0.800    0 0 0 1
G01863           CIRCULAR 0.800    0 0 0 1
G01864           CIRCULAR 0.800    0 0 0 1
G01865           CIRCULAR 1.000    0 0 0 1
G01866           CIRCULAR 1.000    0 0 0 1
G01867           CIRCULAR 0.800    0 0 0 1
G01868           CIRCULAR 0.800    0 0 0 1
G01869           CIRCULAR 0.800    0 0 0 1
G01870           CIRCULAR 1.000    0 0 0 1
G01871           CIRCULAR 0.800    0 0 0 1
G01872           CIRCULAR 0.800    0 0 0 1
G01873           CIRCULAR 1.000    0 0 0 1
G01874           CIRCULAR 1.000    0 0 0 1
G01875           CIRCULAR 0.800    0 0 0 1
G01876           CIRCULAR 0.800    0 0 0 1
G01877           CIRCULAR 0.800    0 0 0 1
G01878           CIRCULAR 0.800    0 0 0 1
G01879           CIRCULAR 0.800    0 0 0 1
G01880           CIRCULAR 0.800    0 0 0 1
G01881           CIRCULAR 0.800    0 0 0 1
G01882           CIRCULAR 0.800    0 0 0 1
G01883           CIRCULAR 0.800    0 0 0 1
G01884           CIRCULAR 0.800    0 0 0 1
G01885           CIRCULAR 1.000    0 0 0 1
G01886           CIRCULAR 0.800    0 0 0 1
G01887           CIRCULAR 0.800    0 0 0 1
G01888           CIRCULAR 0.800    0 0 0 1
G01889           CIRCULAR 0.800    0 0 0 1
G01890           CIRCULAR 0.800    0 0 0 1
G01891           CIRCULAR 0.800    0 0 0 1
G01892           CIRCULAR 0.800    0 0 0 1
G01893           CIRCULAR 0.800    0 0 0 1
G01894           CIRCULAR 0.800    0 0 0 1
G01895           CIRCULAR 0.800    0 0 0 1
G01896           CIRCULAR 0.800    0 0 0 1
G01897           CIRCULAR 0.800    0 0 0 1
G01898           CIRCULAR 0.800    0 0 0 1
G01899           CIRCULAR 0.800    0 0 0 1
G01900           CIRCULAR 0.800    0 0 0 1
G01901           CIRCULAR 0.800    0 0 0 1
G01902           CIRCULAR 0.800    0 0 0 1
G01903           CIRCULAR 1.000    0 0 0 1
G01904           CIRCULAR 0.800    0 0 0 1
G01905           CIRCULAR 0.800    0 0 0 1
G01906           CIRCULAR 0.800    0 0 0 1
G01907           CIRCULAR 0.800    0 0 0 1
G01908           CIRCULAR 0.800    0 0 0 1
G01909           CIRCULAR 0.800    0 0 0 1
G01910           CIRCULAR 0.800    0 0 0 1
G01911           CIRCULAR 0.800    0 0 0 1
G01912           CIRCULAR 0.800    0 0 0 1
G01913           CIRCULAR 0.800    0 0 0 1
G01914           CIRCULAR 0.800    0 0 0 1
G01915           CIRCULAR 0.800    0 0 0 1
G01916           CIRCULAR 0.800    0 0 0 1
G01917           CIRCULAR 0.800    0 0 0 1
G01918           CIRCULAR 0.800    0 0 0 1
G01919           CIRCULAR 0.800    0 0 0 1
G01920           CIRCULAR 0.800    0 0 0 1
G01921           CIRCULAR 0.800    0 0 0 1
G01922           CIRCULAR 0.800    0 0 0 1
G01923           CIRCULAR 0.800    0 0 0 1
G01924           CIRCULAR 0.800    0 0 0 1
G01925           CIRCULAR 0.800    0 0 0 1
G01926           CIRCULAR 0.800    0 0 0 1
G01927           CIRCULAR 0.800    0 0 0 1
G01928           CIRCULAR 0.800    0 0 0 1
G01929           CIRCULAR 0.800    0 0 0 1
G01930           CIRCULAR 0.800    0 0 0 1
G01931           CIRCULAR 0.800    0 0 0 1
G01932           CIRCULAR 1.000    0 0 0 1
G01933           CIRCULAR 0.800    0 0 0 1
G01934           CIRCULAR 0.800    0 0 0 1
G01935           CIRCULAR 0.800    0 0 0 1
G01936           CIRCULAR 1.000    0 0 0 1
G01937           CIRCULAR 0.800    0 0 0 1
G01938           CIRCULAR 0.800    0 0 0 1
G01939           CIRCULAR 0.800    0 0 0 1
G01940           CIRCULAR 0.800    0 0 0 1
G01941           CIRCULAR 0.800    0 0 0 1
G01942           CIRCULAR 1.000    0 0 0 1
G01943           CIRCULAR 0.800    0 0 0 1
G01944           CIRCULAR 0.800    0 0 0 1
G01945           CIRCULAR 0.800    0 0 0 1
G01946           CIRCULAR 0.800    0 0 0 1
G01947           CIRCULAR 0.800    0 0 0 1
G01948           CIRCULAR 0.800    0 0 0 1
G01949           CIRCULAR 0.800    0 0 0 1
G01950           CIRCULAR 0.800    0 0 0 1
G01951           CIRCULAR 0.800    0 0 0 1
G01952           CIRCULAR 0.800    0 0 0 1
G01953           CIRCULAR 1.000    0 0 0 1
G01954           CIRCULAR 0.800    0 0 0 1
G01955           CIRCULAR 0.800    0 0 0 1
G01956           CIRCULAR 0.800    0 0 0 1
G01957           CIRCULAR 0.800    0 0 0 1
G01958           CIRCULAR 0.800    0 0 0 1
G01959           CIRCULAR 0.800    0 0 0 1
G01960           CIRCULAR 0.800    0 0 0 1
G01961           CIRCULAR 0.800    0 0 0 1
G01962           CIRCULAR 0.800    0 0 0 1
G01963           CIRCULAR 0.800    0 0 0 1
G01964           CIRCULAR 0.800    0 0 0 1
G01965           CIRCULAR 0.800    0 0 0 1
G01966           CIRCULAR 0.800    0 0 0 1
G01967           CIRCULAR 0.800    0 0 0 1
G01968           CIRCULAR 0.800    0 0 0 1
G01969           CIRCULAR 0.800    0 0 0 1
G01970           CIRCULAR 0.800    0 0 0 1
G01971           CIRCULAR 0.800    0 0 0 1
G01972           CIRCULAR 0.800    0 0 0 1
G01973           CIRCULAR 0.800    0 0 0 1
G01974           CIRCULAR 0.800    0 0 0 1
G01975           CIRCULAR 0.800    0 0 0 1
G01976           CIRCULAR 0.800    0 0 0 1
G01977           CIRCULAR 0.800    0 0 0 1
G01978           CIRCULAR 0.800    0 0 0 1
G01979           CIRCULAR 0.800    0 0 0 1
G01980           CIRCULAR 0.800    0 0 0 1
G01981           CIRCULAR 0.800    0 0 0 1
G01982           CIRCULAR 0.800    0 0 0 1
G01983           CIRCULAR 0.800    0 0 0 1
G01984           CIRCULAR 0.800    0 0 0 1
G01985           CIRCULAR 0.800    0 0 0 1
G01986           CIRCULAR 0.800    0 0 0 1
G01987           CIRCULAR 0.800    0 0 0 1
G01988           CIRCULAR 1.000    0 0 0 1
G01989           CIRCULAR 0.800    0 0 0 1
G01990           CIRCULAR 0.800    0 0 0 1
G01991           CIRCULAR 0.800    0 0 0 1
G01992           CIRCULAR 0.800    0 0 0 1
G01993           CIRCULAR 0.800    0 0 0 1
G01994           CIRCULAR 0.800    0 0 0 1
G01995           CIRCULAR 1.000    0 0 0 1
G01996           CIRCULAR 1.000    0 0 0 1
G01997           CIRCULAR 1.000    0 0 0 1
G01998           CIRCULAR 1.000    0 0 0 1
G01999           CIRCULAR 0.800    0 0 0 1
G02000           CIRCULAR 0.800    0 0 0 1
G02001           CIRCULAR 0.800    0 0 0 1
G02002           CIRCULAR 0.800    0 0 0 1
G02003           CIRCULAR 0.800    0 0 0 1
G02004           CIRCULAR 0.800    0 0 0 1
G02005           CIRCULAR 0.800    0 0 0 1
G02006           CIRCULAR 0.800    0 0 0 1
G02007           CIRCULAR 0.800    0 0 0 1
G02008           CIRCULAR 0.800    0 0 0 1
G02009           CIRCULAR 0.800    0 0 0 1
G02010           CIRCULAR 0.800    0 0 0 1
G02011           CIRCULAR 0.800    0 0 0 1
G02012           CIRCULAR 0.800    0 0 0 1
G02013           CIRCULAR 0.800    0 0 0 1
G02014           CIRCULAR 0.800    0 0 0 1
G02015           CIRCULAR 0.800    0 0 0 1
G02016           CIRCULAR 0.800    0 0 0 1
G02017           CIRCULAR 0.800    0 0 0 1
G02018           CIRCULAR 0.800    0 0 0 1
G02019           CIRCULAR 0.800    0 0 0 1
G02020           CIRCULAR 0.800    0 0 0 1
G02021           CIRCULAR 0.800    0 0 0 1
G02022           CIRCULAR 0.800    0 0 0 1
G02023           CIRCULAR 0.800    0 0 0 1
G02024           CIRCULAR 0.800    0 0 0 1
G02025           CIRCULAR 0.800    0 0 0 1
G02026           CIRCULAR 0.800    0 0 0 1
G02027           CIRCULAR 0.800    0 0 0 1
G02028           CIRCULAR 0.800    0 0 0 1
G02029           CIRCULAR 0.800    0 0 0 1
G02030           CIRCULAR 0.800    0 0 0 1
G02031           CIRCULAR 0.800    0 0 0 1
G02032           CIRCULAR 0.800    0 0 0 1
G02033           CIRCULAR 1.000    0 0 0 1
G02034           CIRCULAR 0.800    0 0 0 1
G02035           CIRCULAR 0.800    0 0 0 1
G02036           CIRCULAR 0.800    0 0 0 1
G02037           CIRCULAR 0.800    0 0 0 1
G02038           CIRCULAR 0.800    0 0 0 1
G02039           CIRCULAR 1.000    0 0 0 1
G02040           CIRCULAR 0.800    0 0 0 1
G02041           CIRCULAR 0.800    0 0 0 1
G02042           CIRCULAR 0.800    0 0 0 1
G02043           CIRCULAR 0.800    0 0 0 1
G02044           CIRCULAR 0.800    0 0 0 1
G02045           CIRCULAR 0.800    0 0 0 1
G02046           CIRCULAR 0.800    0 0 0 1
G02047           CIRCULAR 1.000    0 0 0 1
G02048           CIRCULAR 1.000    0 0 0 1
G02049           CIRCULAR 0.800    0 0 0 1
G02050           CIRCULAR 0.800    0 0 0 1
G02051           CIRCULAR 0.800    0 0 0 1
G02052           CIRCULAR 0.800    0 0 0 1
G02053           CIRCULAR 0.800    0 0 0 1
G02054           CIRCULAR 0.800    0 0 0 1
G02055           CIRCULAR 0.800    0 0 0 1
G02056           CIRCULAR 0.800    0 0 0 1
G02057           CIRCULAR 0.800    0 0 0 1
G02058           CIRCULAR 0.800    0 0 0 1
G02059           CIRCULAR 0.800    0 0 0 1
G02060           CIRCULAR 0.800    0 0 0 1
G02061           CIRCULAR 0.800    0 0 0 1
G02062           CIRCULAR 0.800    0 0 0 1
G02063           CIRCULAR 1.000    0 0 0 1
G02064           CIRCULAR 0.800    0 0 0 1
G02065           CIRCULAR 0.800    0 0 0 1
G02066           CIRCULAR 0.800    0 0 0 1
G02067           CIRCULAR 0.800    0 0 0 1
G02068           CIRCULAR 0.800    0 0 0 1
G02069           CIRCULAR 0.800    0 0 0 1
G02070           CIRCULAR 0.800    0 0 0 1
G02071           CIRCULAR 0.800    0 0 0 1
G02072           CIRCULAR 0.800    0 0 0 1
G02073           CIRCULAR 0.800    0 0 0 1
G02074           CIRCULAR 1.000    0 0 0 1
G02075           CIRCULAR 0.800    0 0 0 1
G02076           CIRCULAR 0.800    0 0 0 1
G02077           CIRCULAR 0.800    0 0 0 1
G02078           CIRCULAR 0.800    0 0 0 1
G02079           CIRCULAR 0.800    0 0 0 1
G02080           CIRCULAR 1.000    0 0 0 1
G02081           CIRCULAR 1.200    0 0 0 1
G02082           CIRCULAR 0.800    0 0 0 1
G02083           CIRCULAR 0.800    0 0 0 1
G02084           CIRCULAR 1.000    0 0 0 1
G02085           CIRCULAR 0.800    0 0 0 1
G02086           CIRCULAR 1.000    0 0 0 1
G02087           CIRCULAR 0.800    0 0 0 1
G02088           CIRCULAR 0.800    0 0 0 1
G02089           CIRCULAR 0.800    0 0 0 1
G02090           CIRCULAR 0.800    0 0 0 1
G02091           CIRCULAR 0.800    0 0 0 1
G02092           CIRCULAR 0.800    0 0 0 1
G02093           CIRCULAR 0.800    0 0 0 1
G02094           CIRCULAR 0.800    0 0 0 1
G02095           CIRCULAR 0.800    0 0 0 1
G02096           CIRCULAR 0.800    0 0 0 1
G02097           CIRCULAR 0.800    0 0 0 1
G02098           CIRCULAR 0.800    0 0 0 1
G02099           CIRCULAR 0.800    0 0 0 1
G02100           CIRCULAR 0.800    0 0 0 1
G02101           CIRCULAR 0.800    0 0 0 1
G02102           CIRCULAR 0.800    0 0 0 1
G02103           CIRCULAR 0.800    0 0 0 1
G02104           CIRCULAR 0.800    0 0 0 1
G02105           CIRCULAR 0.800    0 0 0 1
G02106           CIRCULAR 0.800    0 0 0 1
G02107           CIRCULAR 0.800    0 0 0 1
G02108           CIRCULAR 0.800    0 0 0 1
G02109           CIRCULAR 0.800    0 0 0 1
G02110           CIRCULAR 0.800    0 0 0 1
G02111           CIRCULAR 0.800    0 0 0 1
G02112           CIRCULAR 1.000    0 0 0 1
G02113           CIRCULAR 0.800    0 0 0 1
G02114           CIRCULAR 0.800    0 0 0 1
G02115           CIRCULAR 0.800    0 0 0 1
G02116           CIRCULAR 0.800    0 0 0 1
G02117           CIRCULAR 0.800    0 0 0 1
G02118           CIRCULAR 0.800    0 0 0 1
G02119           CIRCULAR 0.800    0 0 0 1
G02120           CIRCULAR 0.800    0 0 0 1
G02121           CIRCULAR 0.800    0 0 0 1
G02122           CIRCULAR 0.800    0 0 0 1
G02123           CIRCULAR 1.000    0 0 0 1
G02124           CIRCULAR 1.000    0 0 0 1
G02125           CIRCULAR 0.800    0 0 0 1
G02126           CIRCULAR 0.800    0 0 0 1
G02127           CIRCULAR 0.800    0 0 0 1
G02128           CIRCULAR 0.800    0 0 0 1
G02129           CIRCULAR 0.800    0 0 0 1
G02130           CIRCULAR 0.800    0 0 0 1
G02131           CIRCULAR 1.000    0 0 0 1
G02132           CIRCULAR 0.800    0 0 0 1
G02133           CIRCULAR 0.800    0 0 0 1
G02134           CIRCULAR 0.800    0 0 0 1
G02135           CIRCULAR 1.000    0 0 0 1
G02136           CIRCULAR 0.800    0 0 0 1
G02137           CIRCULAR 0.800    0 0 0 1
G02138           CIRCULAR 0.800    0 0 0 1
G02139           CIRCULAR 0.800    0 0 0 1
G02140           CIRCULAR 0.800    0 0 0 1
G02141           CIRCULAR 0.800    0 0 0 1
G02142           CIRCULAR 0.800    0 0 0 1
G02143           CIRCULAR 0.800    0 0 0 1
G02144           CIRCULAR 0.800    0 0 0 1
G02145           CIRCULAR 1.000    0 0 0 1
G02146           CIRCULAR 1.000    0 0 0 1
G02147           CIRCULAR 0.800    0 0 0 1
G02148           CIRCULAR 1.000    0 0 0 1
G02149           CIRCULAR 0.800    0 0 0 1
G02150           CIRCULAR 0.800    0 0 0 1
G02151           CIRCULAR 0.800    0 0 0 1
G02152           CIRCULAR 0.800    0 0 0 1
G02153           CIRCULAR 0.800    0 0 0 1
G02154           CIRCULAR 0.800    0 0 0 1
G02155           CIRCULAR 0.800    0 0 0 1
G02156           CIRCULAR 0.800    0 0 0 1
G02157           CIRCULAR 1.000    0 0 0 1
G02158           CIRCULAR 0.800    0 0 0 1
G02159           CIRCULAR 0.800    0 0 0 1
G02160           CIRCULAR 0.800    0 0 0 1
G02161           CIRCULAR 0.800    0 0 0 1
G02162           CIRCULAR 0.800    0 0 0 1
G02163           CIRCULAR 1.200    0 0 0 1
G02164           CIRCULAR 0.800    0 0 0 1
G02165           CIRCULAR 0.800    0 0 0 1
G02166           CIRCULAR 0.800    0 0 0 1
G02167           CIRCULAR 0.800    0 0 0 1
G02168           CIRCULAR 0.800    0 0 0 1
G02169           CIRCULAR 0.800    0 0 0 1
G02170           CIRCULAR 0.800    0 0 0 1
G02171           CIRCULAR 0.800    0 0 0 1
G02172           CIRCULAR 0.800    0 0 0 1
G02173           CIRCULAR 0.800    0 0 0 1
G02174           CIRCULAR 0.800    0 0 0 1
G02175           CIRCULAR 0.800    0 0 0 1
G02176           CIRCULAR 0.800    0 0 0 1
G02177           CIRCULAR 0.800    0 0 0 1
G02178           CIRCULAR 1.000    0 0 0 1
G02179           CIRCULAR 0.800    0 0 0 1
G02180           CIRCULAR 0.800    0 0 0 1
O00001           CIRCULAR 1.200    0 0 0 1
O00002           CIRCULAR 1.000    0 0 0 1
O00003           CIRCULAR 1.200    0 0 0 1
O00004           CIRCULAR 1.000    0 0 0 1
O00005           CIRCULAR 1.000    0 0 0 1
O00006           CIRCULAR 1.000    0 0 0 1
O00007           CIRCULAR 1.200    0 0 0 1
O00008           CIRCULAR 1.000    0 0 0 1
O00009           CIRCULAR 1.000    0 0 0 1
O00010           CIRCULAR 1.000    0 0 0 1
O00011           CIRCULAR 1.000    0 0 0 1
O00012           CIRCULAR 1.000    0 0 0 1
O00013           CIRCULAR 1.000    0 0 0 1
O00014           CIRCULAR 1.000    0 0 0 1
O00015           CIRCULAR 0.800    0 0 0 1
O00016           CIRCULAR 1.000    0 0 0 1
O00017           CIRCULAR 1.000    0 0 0 1
O00018           CIRCULAR 1.000    0 0 0 1
O00019           CIRCULAR 1.000    0 0 0 1
O00020           CIRCULAR 1.000    0 0 0 1
O00021           CIRCULAR 1.000    0 0 0 1
O00022           CIRCULAR 1.000    0 0 0 1
O00023           CIRCULAR 1.000    0 0 0 1
O00024           CIRCULAR 1.000    0 0 0 1
O00025           CIRCULAR 1.000    0 0 0 1
O00026           CIRCULAR 1.000    0 0 0 1
O00027           CIRCULAR 1.000    0 0 0 1
O00028           CIRCULAR 1.200    0 0 0 1
O00029           CIRCULAR 1.200    0 0 0 1
O00030           CIRCULAR 1.000    0 0 0 1
O00031           CIRCULAR 1.000    0 0 0 1
O00032           CIRCULAR 0.800    0 0 0 1
O00033           CIRCULAR 1.200    0 0 0 1
O00034           CIRCULAR 0.800    0 0 0 1
O00035           CIRCULAR 1.000    0 0 0 1
O00036           CIRCULAR 0.800    0 0 0 1
O00037           CIRCULAR 1.000    0 0 0 1
O00038           CIRCULAR 1.000    0 0 0 1
O00039           CIRCULAR 1.000    0 0 0 1
O00040           CIRCULAR 1.200    0 0 0 1
O00041           CIRCULAR 1.000    0 0 0 1
O00042           CIRCULAR 1.000    0 0 0 1
O00043           CIRCULAR 1.000    0 0 0 1
O00044           CIRCULAR 1.200    0 0 0 1
O00045           CIRCULAR 1.000    0 0 0 1
O00046           CIRCULAR 1.200    0 0 0 1
O00047           CIRCULAR 1.000    0 0 0 1
O00048           CIRCULAR 1.200    0 0 0 1
O00049           CIRCULAR 1.000    0 0 0 1
O00050           CIRCULAR 1.000    0 0 0 1
O00051           CIRCULAR 0.800    0 0 0 1
O00052           CIRCULAR 1.200    0 0 0 1
O00053           CIRCULAR 1.000    0 0 0 1
O00054           CIRCULAR 1.200    0 0 0 1
O00055           CIRCULAR 1.200    0 0 0 1
O00056           CIRCULAR 1.200    0 0 0 1
O00057           CIRCULAR 1.200    0 0 0 1
O00058           CIRCULAR 1.000    0 0 0 1
O00059           CIRCULAR 1.200    0 0 0 1
O00060           CIRCULAR 1.000    0 0 0 1
O00061           CIRCULAR 1.000    0 0 0 1
O00062           CIRCULAR 1.000    0 0 0 1
O00063           CIRCULAR 1.000    0 0 0 1
O00064           CIRCULAR 1.200    0 0 0 1
O00065           CIRCULAR 1.000    0 0 0 1
O00066           CIRCULAR 1.000    0 0 0 1
O00067           CIRCULAR 1.200    0 0 0 1
O00068           CIRCULAR 1.200    0 0 0 1
O00069           CIRCULAR 1.000    0 0 0 1
O00070           CIRCULAR 1.200    0 0 0 1
O00071           CIRCULAR 0.800    0 0 0 1
O00072           CIRCULAR 1.000    0 0 0 1
O00073           CIRCULAR 1.000    0 0 0 1
O00074           CIRCULAR 1.000    0 0 0 1
O00075           CIRCULAR 1.000    0 0 0 1
O00076           CIRCULAR 1.200    0 0 0 1
O00077           CIRCULAR 1.200    0 0 0 1
O00078           CIRCULAR 1.000    0 0 0 1
O00079           CIRCULAR 1.200    0 0 0 1
O00080           CIRCULAR 1.200    0 0 0 1
O00081           CIRCULAR 1.000    0 0 0 1
O00082           CIRCULAR 1.200    0 0 0 1
O00083           CIRCULAR 1.200    0 0 0 1
O00084           CIRCULAR 1.000    0 0 0 1
O00085           CIRCULAR 1.000    0 0 0 1
O00086           CIRCULAR 1.000    0 0 0 1
O00087           CIRCULAR 1.000    0 0 0 1
O00088           CIRCULAR 1.000    0 0 0 1
O00089           CIRCULAR 1.000    0 0 0 1
O00090           CIRCULAR 1.000    0 0 0 1
O00091           CIRCULAR 1.000    0 0 0 1
O00092           CIRCULAR 1.000    0 0 0 1
O00093           CIRCULAR 1.200    0 0 0 1
O00094           CIRCULAR 0.800    0 0 0 1
O00095           CIRCULAR 1.000    0 0 0 1
O00096           CIRCULAR 1.000    0 0 0 1

[COORDINATES]
N02003           5230.000     4310.000    
N00565           9050.000     4250.000    
N01130           7970.000     2850.000    
N00802           3190.000     3030.000    
N01404           6950.000     1450.000    
N01455           8290.000     2770.000    
N02753           7390.000     3850.000    
N02001           5210.000     4290.000    
N01445           5830.000     4370.000    
N02026           4710.000     5010.000    
N01037           5610.000     3390.000    
N01399           1490.000     2930.000    
N01818           5610.000     4390.000    
N01784           5610.000     2590.000    
N00635           6030.000     50.000      
N00718           2670.000     4890.000    
N01726           6650.000     2770.000    
N01722           6650.000     2810.000    
N02844           6230.000     5950.000    
N01806           6050.000     3730.000    
N02293           7890.000     6630.000    
N01867           7150.000     3670.000    
N00221           3910.000     2110.000    
N00156           2190.000     3030.000    
N01269           3190.000     2670.000    
N02541           7430.000     890.000     
N01713           6170.000     2850.000    
N00586           9950.000     5970.000    
N02162           8810.000     4330.000    
N00906           5830.000     590.000     
N00650           6630.000     230.000     
N02168           8810.000     4270.000    
N02726           8950.000     5030.000    
N00123           2190.000     2150.000    
N01653           3110.000     2330.000    
N01612           4810.000     2090.000    
N01294           6610.000     2110.000    
N00297           6170.000     3510.000    
N00092           270.000      1910.000    
N00253           5130.000     970.000     
N02241           4670.000     6450.000    
N02053           4010.000     3990.000    
N02563           1270.000     2950.000    
N00908           6390.000     3030.000    
N00274           5190.000     3470.000    
N02289           7090.000     6630.000    
N02638           8470.000     5070.000    
N02048           4870.000     5170.000    
N02774           3570.000     5090.000    
N02063           2650.000     3970.000    
N01396           270.000      1970.000    
N02172           9890.000     4990.000    
N01642           5970.000     150.000     
N02805           8970.000     4570.000    
N02123           7890.000     5090.000    
N02728           9910.000     4990.000    
N02124           7950.000     5010.000    
N01562           9910.000     6070.000    
N01929           3490.000     2910.000    
N02004           5190.000     5010.000    
N02308           7410.000     7030.000    
N00497           5370.000     5910.000    
N02097           2550.000     5090.000    
N01849           6970.000     3450.000    
N00454           7590.000     5090.000    
N00432           7550.000     6330.000    
N01524           9290.000     4910.000    
N02240           4550.000     6350.000    
N01582           5470.000     5170.000    
N01962           4570.000     3570.000    
N00543           7410.000     5570.000    
N01950           3010.000     2670.000    
N00271           6350.000     2150.000    
N01815           5870.000     3990.000    
N00056           7410.000     4870.000    
N01020           990.000      2910.000    
N00983           6430.000     5910.000    
N01937           4570.000     3370.000    
N02376           6990.000     1390.000    
N01111           5550.000     3730.000    
N00911           10350.000    5330.000    
N00229           6030.000     2110.000    
N01332           1930.000     5550.000    
N01349           2710.000     2330.000    
N00102           1950.000     2210.000    
N00090           210.000      2330.000    
N00204           3250.000     3670.000    
N02678           2710.000     3530.000    
N01585           1850.000     4730.000    
N01958           4510.000     4090.000    
N00110           2450.000     2650.000    
N00250           5470.000     2070.000    
N02369           7030.000     1150.000    
N02055           4270.000     4070.000    
N00636           6190.000     90.000      
N01529           6550.000     5690.000    
N02710           7990.000     5730.000    
N00098           1870.000     2190.000    
N00366           8010.000     3470.000    
N00818           5030.000     2110.000    
N02582           9610.000     5370.000    
N02663           2750.000     3530.000    
N02842           5690.000     150.000     
N02166           9010.000     4290.000    
N00481           5490.000     5930.000    
N00188           3510.000     2130.000    
N01632           2630.000     1990.000    
N00228           5750.000     2110.000    
N02547           6530.000     6250.000    
N02609           4190.000     1610.000    
N01888           5430.000     3590.000    
N00830           5150.000     3390.000    
N00824           5410.000     2510.000    
N00113           2390.000     2270.000    
N00083           6470.000     590.000     
N00403           7090.000     870.000     
N00435           8010.000     6590.000    
N01890           4790.000     4190.000    
N00348           7910.000     3150.000    
N00809           4290.000     2030.000    
N01566           9910.000     5730.000    
N02108           2650.000     5050.000    
N00233           6010.000     50.000      
N01373           1650.000     2190.000    
N01832           6910.000     4150.000    
N01381           7070.000     510.000     
N02418           350.000      3970.000    
N00726           1270.000     2370.000    
N02823           7250.000     1030.000    
N02739           9330.000     5050.000    
N00142           2070.000     2690.000    
N02674           2270.000     3290.000    
N00480           5330.000     5850.000    
N02018           5870.000     5410.000    
N01608           7170.000     2090.000    
N01994           5470.000     4330.000    
N00210           3430.000     3290.000    
N02054           4250.000     4070.000    
N02730           9530.000     5310.000    
N02631           9990.000     5010.000    
N01366           4030.000     3270.000    
N00018           6610.000     3430.000    
N00573           10230.000    5290.000    
N02475           3870.000     2090.000    
N00137           5270.000     90.000      
N02706           3410.000     2750.000    
N02454           5810.000     3150.000    
N00618           2250.000     5090.000    
N01340           3570.000     3190.000    
N02445           7370.000     2750.000    
N01897           5490.000     5070.000    
N00484           5150.000     5850.000    
N02288           7090.000     6650.000    
N00328           7270.000     2030.000    
N02767           7350.000     2630.000    
N02066           2330.000     4570.000    
N01158           7990.000     6790.000    
N01586           1810.000     4670.000    
N01951           3210.000     2530.000    
N00025           5910.000     6030.000    
N00589           9870.000     5710.000    
N02163           8810.000     4290.000    
N00959           2650.000     1910.000    
N00929           330.000      3950.000    
N00163           2350.000     3090.000    
N02694           1170.000     4390.000    
N01114           6530.000     3290.000    
N02158           7990.000     4250.000    
N00192           3250.000     2290.000    
N00017           7590.000     2070.000    
N02802           8250.000     3290.000    
N01869           7130.000     3570.000    
N01746           6830.000     2310.000    
N02613           6890.000     3910.000    
N00305           6390.000     3350.000    
N02538           1350.000     4590.000    
N02317           7450.000     2030.000    
N00232           5870.000     50.000      
N00946           6630.000     7270.000    
N00382           7350.000     2130.000    
N00957           2590.000     2270.000    
N00799           3330.000     2890.000    
N00414           5670.000     4390.000    
N02828           6150.000     6850.000    
N01296           6450.000     2130.000    
N02551           6070.000     6710.000    
N01965           4970.000     3670.000    
N00066           950.000      2250.000    
N02743           4990.000     190.000     
N02115           7930.000     4370.000    
N01621           8270.000     3330.000    
N00094           270.000      2110.000    
N01665           7990.000     5830.000    
N01763           7110.000     2530.000    
N00182           3790.000     2110.000    
N01264           4550.000     4970.000    
N01400           1510.000     2750.000    
N01668           7950.000     5230.000    
N01551           5570.000     3410.000    
N01207           8210.000     4270.000    
N00607           990.000      4190.000    
N00793           3090.000     2330.000    
N01791           5970.000     3310.000    
N00336           7370.000     3070.000    
N02793           7990.000     6070.000    
N00178           3710.000     2170.000    
N02576           4970.000     750.000     
N02131           7930.000     3910.000    
N02024           5170.000     5710.000    
N01719           6290.000     2810.000    
N01498           7910.000     2250.000    
N01116           6790.000     3390.000    
N02700           7450.000     3350.000    
N02586           9130.000     4730.000    
N01046           1570.000     4310.000    
N02508           9950.000     6010.000    
N01816           6070.000     3730.000    
N02557           6470.000     6870.000    
N02520           2430.000     3110.000    
N02698           1590.000     3010.000    
N01058           1850.000     4690.000    
N01810           5770.000     4190.000    
N00258           6170.000     2290.000    
N00154           2090.000     2730.000    
N01516           770.000      2250.000    
N01029           7230.000     2310.000    
N00725           1370.000     2230.000    
N00453           7510.000     5110.000    
N01550           8010.000     5550.000    
N00572           7550.000     6310.000    
N01881           5310.000     2490.000    
N02301           7110.000     6850.000    
N02132           7930.000     4270.000    
N00616           1950.000     4910.000    
N01975           4290.000     4090.000    
N00299           5830.000     3390.000    
N01998           5210.000     3910.000    
N02126           7930.000     4790.000    
N01731           6170.000     2810.000    
N02121           8430.000     5050.000    
N02526           750.000      4330.000    
N00703           3030.000     4270.000    
N01208           8010.000     4270.000    
N01959           4470.000     4210.000    
N02777           5630.000     5970.000    
N02755           5510.000     4370.000    
N01926           3630.000     2930.000    
N01787           5630.000     2590.000    
N01440           6150.000     3730.000    
N02142           7590.000     3890.000    
N02811           7310.000     3310.000    
N01437           6150.000     3710.000    
N02714           7750.000     3310.000    
N00532           9250.000     4850.000    
N01917           4310.000     3370.000    
N01624           7230.000     970.000     
N02416           290.000      4030.000    
N01335           1950.000     5610.000    
N00338           7390.000     3890.000    
N01045           2330.000     3110.000    
N02711           8010.000     6010.000    
N02430           4610.000     4850.000    
N00547           7610.000     5090.000    
N01735           6170.000     3030.000    
N01505           7450.000     6210.000    
N01801           5850.000     3810.000    
N01893           4730.000     4210.000    
N02488           7070.000     1430.000    
N01578           7750.000     3870.000    
N00020           6630.000     3310.000    
N01597           9890.000     5770.000    
N02779           5470.000     5990.000    
N00133           4850.000     250.000     
N02619           6910.000     3710.000    
N00656           5990.000     410.000     
N02484           3410.000     2550.000    
N01853           6910.000     3930.000    
N01535           10150.000    5490.000    
N01900           4810.000     3410.000    
N00327           6850.000     2030.000    
N00689           5250.000     3650.000    
N00127           2870.000     1570.000    
N00774           6050.000     6850.000    
N01240           4470.000     6250.000    
N00778           1670.000     4530.000    
N02315           6910.000     2110.000    
N02296           7090.000     6830.000    
N01768           6850.000     2530.000    
N01475           5070.000     1010.000    
N01960           4450.000     4470.000    
N01462           2330.000     3070.000    
N00001           590.000      2190.000    
N01433           5830.000     3410.000    
N01946           3350.000     2690.000    
N00920           450.000      2810.000    
N01880           5050.000     2370.000    
N00854           7210.000     5430.000    
N02378           7030.000     1010.000    
N00704           3070.000     4190.000    
N02176           2530.000     2270.000    
N01472           2970.000     1570.000    
N02290           7030.000     6670.000    
N00091           230.000      2190.000    
N00888           7790.000     2810.000    
N00015           7070.000     2070.000    
N00634           6150.000     70.000      
N00291           6190.000     3390.000    
N01695           5810.000     2890.000    
N02364           6910.000     1630.000    
N00149           2330.000     2390.000    
N01133           7910.000     2930.000    
N00745           8950.000     4550.000    
N01071           5230.000     4450.000    
N00907           5950.000     590.000     
N00669           8030.000     6450.000    
N00991           5730.000     5990.000    
N00554           6610.000     5650.000    
N01511           9830.000     5730.000    
N00491           5170.000     6030.000    
N01016           1250.000     2590.000    
N02181           3010.000     1590.000    
N02009           5230.000     4890.000    
N01972           4470.000     4150.000    
N01882           5050.000     2150.000    
N02832           6610.000     5670.000    
N02020           5210.000     5050.000    
N00671           310.000      3970.000    
N01164           5990.000     50.000      
N02075           2410.000     3730.000    
N02692           1930.000     4250.000    
N01661           4110.000     1690.000    
N01764           7110.000     2510.000    
N00369           7270.000     750.000     
N01741           6870.000     2810.000    
N02156           8790.000     4110.000    
N00919           150.000      2830.000    
N01471           2890.000     1670.000    
N01878           4670.000     2150.000    
N00070           6950.000     2070.000    
N00685           3690.000     3930.000    
N00361           7830.000     3310.000    
N00343           7990.000     3510.000    
N02487           3450.000     2630.000    
N01526           7970.000     5190.000    
N00011           950.000      2270.000    
N02098           2310.000     5090.000    
N00249           5490.000     2050.000    
N01748           6790.000     2110.000    
N02769           7390.000     2730.000    
N00588           9770.000     5650.000    
N02015           4950.000     5050.000    
N01928           3770.000     2190.000    
N01698           6390.000     3010.000    
N01469           2450.000     2470.000    
N01648           930.000      2250.000    
N01515           890.000      2270.000    
N01143           8230.000     6370.000    
N02701           6970.000     3370.000    
N00825           5210.000     2470.000    
N02778           5870.000     6030.000    
N00814           4010.000     2090.000    
N01279           4590.000     4890.000    
N02614           6850.000     3670.000    
N00034           6690.000     6010.000    
N02101           2310.000     5110.000    
N01693           7270.000     2990.000    
N02077           2490.000     3750.000    
N00197           4790.000     1210.000    
N02379           6970.000     1410.000    
N01616           4950.000     290.000     
N02278           6590.000     6010.000    
N01489           7270.000     2090.000    
N00302           5790.000     3330.000    
N02746           3270.000     3050.000    
N02819           7410.000     2750.000    
N01887           5470.000     3730.000    
N01704           5550.000     2850.000    
N01991           5070.000     4730.000    
N01425           6270.000     3950.000    
N01948           2470.000     2590.000    
N00108           2210.000     2430.000    
N00275           5470.000     3290.000    
N01634           4730.000     370.000     
N02139           7770.000     4690.000    
N00333           7350.000     3650.000    
N01823           5530.000     4430.000    
N00724           1270.000     2530.000    
N00408           7490.000     6230.000    
N01280           4650.000     4690.000    
N01573           6210.000     2090.000    
N02653           3170.000     3830.000    
N01961           4550.000     4170.000    
N00269           6110.000     2090.000    
N01683           5790.000     2350.000    
N00487           5250.000     5670.000    
N00365           8110.000     3350.000    
N01802           5850.000     3730.000    
N01861           7170.000     4330.000    
N02534           1390.000     4270.000    
N00696           2150.000     3850.000    
N00027           7910.000     3710.000    
N00820           5210.000     2110.000    
N01851           7150.000     4170.000    
N02062           2630.000     4050.000    
N00806           4510.000     1770.000    
N01638           5390.000     150.000     
N00667           8010.000     6610.000    
N01553           5510.000     3710.000    
N02173           7090.000     3010.000    
N00622           7790.000     1550.000    
N01813           6090.000     4170.000    
N01410           1810.000     2650.000    
N01831           6910.000     4310.000    
N02536           1430.000     4590.000    
N00095           270.000      1950.000    
N01999           5250.000     3790.000    
N01639           5650.000     130.000     
N00118           2050.000     3130.000    
N01933           3350.000     3130.000    
N00013           670.000      2210.000    
N01031           7410.000     3370.000    
N02372           6890.000     1830.000    
N01380           2310.000     3190.000    
N02209           6850.000     3170.000    
N00954           7930.000     3890.000    
N01694           5830.000     3050.000    
N00170           3430.000     2270.000    
N02247           4110.000     5950.000    
N01636           5210.000     190.000     
N01575           6170.000     2750.000    
N02712           8010.000     5990.000    
N00975           7370.000     3930.000    
N02280           6630.000     6130.000    
N00410           7470.000     6230.000    
N00247           5590.000     2210.000    
N00152           2430.000     2110.000    
N02661           2770.000     3350.000    
N01717           6310.000     3030.000    
N00318           2670.000     4950.000    
N01533           9910.000     6050.000    
N02120           8030.000     5070.000    
N01290           7470.000     2750.000    
N00871           7010.000     810.000     
N02107           2630.000     5110.000    
N02775           3490.000     5070.000    
N01820           6210.000     3890.000    
N01525           7950.000     4210.000    
N01326           7350.000     6250.000    
N02647           2710.000     3790.000    
N02651           3170.000     3870.000    
N00355           7890.000     3470.000    
N02618           7030.000     830.000     
N02100           2270.000     5110.000    
N00717           2610.000     5030.000    
N01549           7650.000     2790.000    
N02564           7850.000     3370.000    
N00285           5610.000     2810.000    
N02679           2450.000     3750.000    
N02351           6070.000     910.000     
N02050           3150.000     4090.000    
N01561           3770.000     3950.000    
N00999           6590.000     5950.000    
N01710           5810.000     2830.000    
N01476           4630.000     1250.000    
N01595           9970.000     5990.000    
N01273           3430.000     2490.000    
N00944           7450.000     7170.000    
N01646           470.000      2050.000    
N00780           4950.000     5870.000    
N00821           5390.000     2130.000    
N00223           3510.000     2250.000    
N01011           6110.000     5810.000    
N01324           4630.000     5810.000    
N01101           8210.000     2130.000    
N02672           2290.000     3250.000    
N00511           5130.000     5890.000    
N02803           9690.000     5530.000    
N01903           4550.000     3370.000    
N01032           6870.000     3630.000    
N00861           6250.000     6050.000    
N01490           7290.000     2190.000    
N02468           7470.000     4370.000    
N00411           7470.000     6370.000    
N00996           6250.000     5970.000    
N00216           5450.000     1970.000    
N01841           6210.000     4210.000    
N02080           2270.000     3350.000    
N01499           7890.000     2330.000    
N02266           6450.000     6710.000    
N01216           7290.000     7130.000    
N00105           2430.000     2350.000    
N00660           2550.000     2130.000    
N01275           3230.000     3550.000    
N00240           5430.000     2250.000    
N00252           5490.000     2230.000    
N02204           4110.000     1490.000    
N02311           7370.000     2490.000    
N02091           2690.000     5090.000    
N00451           7410.000     5090.000    
N01904           4170.000     3290.000    
N01468           2450.000     2410.000    
N00380           7350.000     1830.000    
N02188           4550.000     490.000     
N00064           650.000      2190.000    
N02745           6030.000     230.000     
N02307           7570.000     6990.000    
N01392           7170.000     630.000     
N01214           7650.000     6630.000    
N02791           7390.000     4250.000    
N01063           4530.000     6350.000    
N00623           7710.000     1390.000    
N01625           7290.000     1110.000    
N00512           4970.000     5870.000    
N00882           7630.000     2790.000    
N00695           1670.000     4450.000    
N00200           3290.000     3270.000    
N02604           7750.000     3350.000    
N02022           5410.000     5090.000    
N02237           4730.000     6370.000    
N02367           7010.000     1190.000    
N01877           4650.000     2130.000    
N00504           4970.000     5910.000    
N00958           2610.000     1990.000    
N01774           6370.000     2530.000    
N01137           9050.000     5150.000    
N02831           5670.000     6350.000    
N00857           7090.000     5670.000    
N01915           4090.000     3330.000    
N01206           8390.000     4270.000    
N01617           4810.000     350.000     
N01123           7370.000     2990.000    
N01078           4530.000     3390.000    
N02846           8150.000     2830.000    
N01347           2930.000     2330.000    
N01707           5970.000     2790.000    
N01669           7970.000     5370.000    
N00947           6790.000     7250.000    
N01348           2910.000     2370.000    
N00931           910.000      4110.000    
N02330           6130.000     570.000     
N00245           5550.000     2110.000    
N00295           6190.000     3650.000    
N01338           5850.000     3610.000    
N01627           7050.000     830.000     
N01685           5810.000     2350.000    
N00362           7930.000     3630.000    
N00067           1050.000     2270.000    
N00709           3010.000     4370.000    
N00625           7570.000     1110.000    
N01920           4170.000     3330.000    
N02505           6810.000     5970.000    
N01721           6410.000     3030.000    
N00337           7370.000     3510.000    
N02093           3010.000     5090.000    
N00187           3430.000     2250.000    
N00701           2850.000     4570.000    
N00255           6050.000     2010.000    
N02474           3470.000     2250.000    
N00673           190.000      2430.000    
N01984           4770.000     5310.000    
N02599           150.000      2970.000    
N02210           6990.000     3350.000    
N00196           4970.000     1090.000    
N00139           5570.000     50.000      
N01124           7050.000     5570.000    
N02497           7330.000     3910.000    
N02709           4990.000     250.000     
N00930           170.000      3990.000    
N02282           7050.000     6170.000    
N01013           7490.000     1090.000    
N02245           4190.000     6390.000    
N02490           7310.000     1390.000    
N01896           5510.000     4350.000    
N01012           7590.000     1230.000    
N00887           7210.000     4150.000    
N01241           4430.000     6070.000    
N01765           6970.000     2510.000    
N00323           3190.000     3750.000    
N00277           5370.000     3410.000    
N01734           6590.000     2770.000    
N00889           7790.000     2830.000    
N00848           3850.000     6550.000    
N01258           4510.000     4150.000    
N00514           4510.000     5850.000    
N00310           6010.000     3490.000    
N01024           930.000      2910.000    
N01850           7150.000     4350.000    
N00280           5570.000     3250.000    
N00429           7950.000     6350.000    
N01740           6850.000     2650.000    
N01035           6870.000     3110.000    
N01619           6010.000     510.000     
N00311           5790.000     3550.000    
N02822           4970.000     2350.000    
N00131           4690.000     330.000     
N02473           3450.000     2390.000    
N01969           4870.000     3670.000    
N00069           1610.000     2190.000    
N01699           6950.000     2750.000    
N00096           290.000      1770.000    
N02677           2530.000     3490.000    
N02667           3050.000     3590.000    
N02704           7610.000     3310.000    
N01350           6970.000     450.000     
N02356           6110.000     1210.000    
N02548           6090.000     6510.000    
N00169           3490.000     2210.000    
N01780           6170.000     2510.000    
N01756           6730.000     2530.000    
N00342           7990.000     3470.000    
N00290           6190.000     3090.000    
N01537           5750.000     2150.000    
N02434           6070.000     50.000      
N01049           1350.000     4170.000    
N01542           5470.000     1730.000    
N02825           5230.000     4910.000    
N01092           5250.000     6430.000    
N01783           6170.000     2550.000    
N00436           7870.000     6450.000    
N01808           5770.000     4210.000    
N00185           2250.000     2210.000    
N01732           6170.000     2790.000    
N01759           6130.000     2570.000    
N00974           3350.000     5070.000    
N02008           5210.000     4710.000    
N01083           5470.000     1950.000    
N02826           6250.000     6710.000    
N00084           6650.000     630.000     
N01954           2550.000     2430.000    
N02635           9690.000     5030.000    
N02294           7910.000     6770.000    
N00278           5470.000     3130.000    
N01514           1090.000     2290.000    
N02365           6950.000     1470.000    
N01082           7350.000     1730.000    
N01438           6250.000     3710.000    
N00890           7950.000     2830.000    
N02007           5470.000     4690.000    
N01398           190.000      2490.000    
N02518           3370.000     2850.000    
N00570           7450.000     6310.000    
N01288           7970.000     5630.000    
N00215           5450.000     2070.000    
N02607           4170.000     1650.000    
N00425           7310.000     5270.000    
N00686           3530.000     3890.000    
N02511           10030.000    5810.000    
N02675           2330.000     3090.000    
N02078           2450.000     3790.000    
N00638           5890.000     50.000      
N02595           10270.000    5310.000    
N00548           7450.000     5070.000    
N00206           3410.000     3190.000    
N01212           7410.000     6790.000    
N02033           4450.000     4810.000    
N01025           2090.000     2610.000    
N01800           5830.000     3970.000    
N01866           7150.000     3870.000    
N02128           7970.000     5070.000    
N01911           3490.000     3250.000    
N00534           9370.000     5010.000    
N01560           3990.000     4010.000    
N01043           1170.000     3270.000    
N02146           3330.000     3030.000    
N02326           6610.000     630.000     
N01953           3390.000     2550.000    
N00688           5050.000     3670.000    
N00164           1830.000     3050.000    
N00375           7870.000     1770.000    
N02641           3210.000     3590.000    
N00677           5430.000     3670.000    
N02254           4490.000     6270.000    
N01894           5530.000     4350.000    
N00282           5490.000     3530.000    
N01080           7310.000     1410.000    
N00533           9210.000     4810.000    
N00620           1030.000     2930.000    
N01580           4970.000     4990.000    
N00450           7330.000     5110.000    
N00304           5830.000     3330.000    
N01395           270.000      1830.000    
N01701           7270.000     2750.000    
N00994           5630.000     6050.000    
N00394           7630.000     2070.000    
N01362           2630.000     5270.000    
N00530           8890.000     4430.000    
N01310           810.000      2530.000    
N00655           5990.000     350.000     
N00174           3590.000     2250.000    
N00803           2850.000     3090.000    
N00536           8790.000     4270.000    
N02068           2390.000     4510.000    
N01166           10090.000    5730.000    
N00289           6870.000     3510.000    
N02252           4090.000     6150.000    
N00933           6410.000     570.000     
N00387           7850.000     1750.000    
N00621           7830.000     1710.000    
N00085           6770.000     670.000     
N00033           6770.000     6010.000    
N01842           6230.000     4390.000    
N00860           6270.000     6030.000    
N01394           210.000      2310.000    
N02699           5090.000     990.000     
N00031           6970.000     6090.000    
N01318           1270.000     2310.000    
N00886           7390.000     4150.000    
N02500           6470.000     850.000     
N01564           9770.000     5630.000    
N00128           2970.000     1510.000    
N00022           6790.000     3350.000    
N02214           4870.000     6490.000    
N02345           5790.000     770.000     
N01939           4590.000     3430.000    
N02504           7130.000     6150.000    
N00812           4550.000     2050.000    
N01548           7730.000     2870.000    
N01930           3690.000     2930.000    
N02546           6210.000     6250.000    
N01435           6210.000     3630.000    
N02676           2470.000     3670.000    
N01353           710.000      4210.000    
N02073           2730.000     3570.000    
N01955           2910.000     2510.000    
N01837           6230.000     4190.000    
N02253           4350.000     6330.000    
N01061           3970.000     6490.000    
N01431           6150.000     3410.000    
N02486           3450.000     2610.000    
N02824           7130.000     890.000     
N01039           5530.000     3250.000    
N00776           1550.000     4730.000    
N02622           3230.000     2370.000    
N02283           6850.000     6110.000    
N02069           2290.000     4670.000    
N02149           3330.000     2990.000    
N00555           6910.000     5670.000    
N01119           5490.000     3050.000    
N02494           5190.000     930.000     
N02649           3130.000     3850.000    
N02117           7990.000     4950.000    
N02496           5750.000     50.000      
N01854           6910.000     3910.000    
N00492           5230.000     5970.000    
N01977           4770.000     5330.000    
N00334           7370.000     3450.000    
N00428           7470.000     5330.000    
N00032           6810.000     6050.000    
N00507           5230.000     5910.000    
N02273           6530.000     7290.000    
N00388           7970.000     2010.000    
N00875           7370.000     3790.000    
N01204           9330.000     5430.000    
N00639           5850.000     50.000      
N01583           5530.000     5150.000    
N01918           4150.000     3350.000    
N01519           8150.000     3310.000    
N01974           4450.000     4150.000    
N01723           6830.000     3010.000    
N00157           1850.000     2970.000    
N02437           590.000      2490.000    
N02625           4650.000     2090.000    
N02219           5470.000     6450.000    
N00114           2270.000     2670.000    
N00356           7770.000     3370.000    
N00949           6950.000     7150.000    
N00641           4990.000     230.000     
N02809           2970.000     3190.000    
N01120           5730.000     3050.000    
N01292           6330.000     2150.000    
N00629           6410.000     210.000     
N02112           7990.000     5350.000    
N00262           6170.000     2270.000    
N01630           4950.000     270.000     
N00260           6090.000     1970.000    
N02059           2570.000     4170.000    
N02232           4710.000     6430.000    
N02517           3330.000     3130.000    
N02448           8850.000     5070.000    
N02102           2590.000     5110.000    
N00630           6250.000     150.000     
N01620           6030.000     530.000     
N00373           6910.000     430.000     
N01211           7390.000     6970.000    
N02169           8770.000     4290.000    
N00370           7150.000     630.000     
N01628           4930.000     710.000     
N00993           6050.000     5970.000    
N00633           6550.000     210.000     
N01465           2130.000     2790.000    
N01715           6110.000     2790.000    
N02836           6590.000     5650.000    
N01898           5470.000     5150.000    
N00220           4970.000     2110.000    
N01689           5790.000     2210.000    
N01922           5090.000     3450.000    
N02558           7250.000     690.000     
N01477           4630.000     1290.000    
N01870           7290.000     3670.000    
N01749           7270.000     2490.000    
N02628           4510.000     2110.000    
N00571           7390.000     6270.000    
N00413           6210.000     4410.000    
N01552           5570.000     3570.000    
N01554           5450.000     3430.000    
N02720           3370.000     3030.000    
N02798           9450.000     5210.000    
N00377           7870.000     1970.000    
N00792           2970.000     2350.000    
N01036           6930.000     3510.000    
N01089           1050.000     4210.000    
N02695           1190.000     4390.000    
N00567           7430.000     6450.000    
N00439           8090.000     6350.000    
N00391           7990.000     2150.000    
N01186           10330.000    5410.000    
N01614           5950.000     170.000     
N02617           7050.000     890.000     
N01388           2650.000     1790.000    
N00193           3770.000     2150.000    
N01386           2830.000     1630.000    
N02086           8290.000     2830.000    
N00827           5490.000     2510.000    
N00863           7370.000     6770.000    
N01048           1230.000     4130.000    
N02737           9430.000     5090.000    
N00181           3610.000     2070.000    
N00316           2590.000     5230.000    
N01278           2610.000     5230.000    
N00358           8130.000     3310.000    
N00371           7090.000     570.000     
N01641           5130.000     190.000     
N00227           5550.000     2130.000    
N00165           1390.000     2970.000    
N01743           6850.000     2510.000    
N01402           1750.000     2950.000    
N00352           7970.000     3130.000    
N00134           4950.000     210.000     
N02109           8010.000     6090.000    
N02724           9090.000     4690.000    
N01892           4930.000     4250.000    
N01343           3210.000     2310.000    
N01706           5830.000     2810.000    
N01544           5390.000     790.000     
N00306           6350.000     3450.000    
N01422           6850.000     3930.000    
N01786           5610.000     2570.000    
N01251           7910.000     5090.000    
N01006           6970.000     6010.000    
N02303           7110.000     6910.000    
N00574           10290.000    5150.000    
N01022           690.000      2890.000    
N01436           6210.000     3650.000    
N01682           5830.000     3310.000    
N00500           5290.000     5810.000    
N00284           5470.000     2690.000    
N00201           3510.000     3250.000    
N01663           7070.000     890.000     
N01053           1030.000     4150.000    
N01494           6890.000     1850.000    
N01369           1530.000     2710.000    
N02238           4690.000     6450.000    
N02138           7450.000     4730.000    
N00351           7910.000     3350.000    
N00088           6670.000     350.000     
N02277           6610.000     6130.000    
N01770           6410.000     2550.000    
N01924           5050.000     3430.000    
N00036           6350.000     5990.000    
N02275           6630.000     6370.000    
N00076           6310.000     6250.000    
N02046           5170.000     5070.000    
N01596           9830.000     5690.000    
N00101           2150.000     2250.000    
N02657           2710.000     3770.000    
N02812           7410.000     3270.000    
N00140           5710.000     50.000      
N02304           7330.000     7030.000    
N00828           3410.000     2910.000    
N01070           5230.000     4570.000    
N01364           2570.000     5250.000    
N02741           9330.000     4930.000    
N01752           7090.000     2130.000    
N01463           2350.000     2730.000    
N02800           7470.000     3370.000    
N00832           7330.000     770.000     
N01371           1730.000     2690.000    
N01407           1230.000     2910.000    
N00068           1510.000     2190.000    
N01856           7010.000     3670.000    
N00610           470.000      4050.000    
N02782           6170.000     5990.000    
N00151           2390.000     2190.000    
N01487           7350.000     1930.000    
N00502           5330.000     5910.000    
N02465           7450.000     5450.000    
N01272           3410.000     2670.000    
N02159           8190.000     4250.000    
N00325           6870.000     2310.000    
N02243           3990.000     6490.000    
N01745           7170.000     2030.000    
N00877           7490.000     2730.000    
N00653           6970.000     470.000     
N00273           5390.000     3430.000    
N02449           8630.000     5070.000    
N01056           1490.000     4270.000    
N01769           6650.000     2550.000    
N00340           7910.000     3050.000    
N00242           5350.000     2150.000    
N01618           5970.000     590.000     
N01846           6310.000     4170.000    
N00345           7310.000     2510.000    
N00531           9110.000     4670.000    
N01970           4570.000     3630.000    
N01355           5450.000     2770.000    
N01330           7450.000     6350.000    
N02439           1070.000     2550.000    
N02071           2650.000     3770.000    
N00286           6890.000     3130.000    
N00679           5130.000     3470.000    
N01328           7370.000     6150.000    
N02489           7310.000     1450.000    
N02407           5250.000     6270.000    
N00399           7830.000     1850.000    
N01895           5510.000     5110.000    
N00397           7870.000     2110.000    
N01626           7330.000     1250.000    
N01315           1310.000     2610.000    
N02406           5090.000     6170.000    
N00246           5470.000     2210.000    
N01146           8390.000     6390.000    
N01122           7150.000     3570.000    
N00515           4410.000     5790.000    
N02665           2750.000     3550.000    
N00553           6130.000     5590.000    
N00372           7030.000     510.000     
N00141           5810.000     50.000      
N02717           7370.000     3470.000    
N01874           3890.000     2150.000    
N02410           5690.000     6310.000    
N01971           5410.000     3650.000    
N01863           7150.000     3890.000    
N01662           3950.000     1790.000    
N00243           5350.000     2230.000    
N02688           2110.000     3950.000    
N02608           4390.000     1470.000    
N01788           5810.000     2790.000    
N01304           9370.000     5330.000    
N01868           7130.000     3670.000    
N02785           2570.000     3210.000    
N00330           8230.000     3310.000    
N02702           6990.000     3390.000    
N02094           3010.000     5070.000    
N00175           3190.000     2370.000    
N02425           4550.000     3650.000    
N01678           8310.000     2830.000    
N01368           4210.000     3310.000    
N01623           7110.000     870.000     
N01992           5050.000     4250.000    
N01248           5350.000     170.000     
N00627           7730.000     1390.000    
N02553           6030.000     6730.000    
N02036           4770.000     5030.000    
N01931           3350.000     3250.000    
N00674           6150.000     2310.000    
N02433           6170.000     70.000      
N01635           5370.000     150.000     
N00479           5270.000     5670.000    
N02414           8150.000     6390.000    
N02673           2270.000     3310.000    
N01154           8490.000     6510.000    
N00566           8870.000     4290.000    
N00153           2490.000     2010.000    
N02515           4490.000     5850.000    
N00237           6590.000     210.000     
N01307           1210.000     2870.000    
N00160           2130.000     2470.000    
N00924           1050.000     2890.000    
N02696           2890.000     3350.000    
N01052           1350.000     4210.000    
N00287           6930.000     3310.000    
N02309           7670.000     6930.000    
N02533           1370.000     4250.000    
N01908           4090.000     3270.000    
N00819           5030.000     2090.000    
N02689           1710.000     4390.000    
N00259           5950.000     2050.000    
N00815           5450.000     2010.000    
N02157           8710.000     4290.000    
N00296           6170.000     3150.000    
N01792           5850.000     3670.000    
N01987           5070.000     4710.000    
N02810           6170.000     3090.000    
N00456           6990.000     5670.000    
N02796           3170.000     2330.000    
N00357           7970.000     3290.000    
N00130           4610.000     370.000     
N00611           330.000      3990.000    
N01708           5830.000     2830.000    
N01872           7290.000     3430.000    
N00349           7870.000     3290.000    
N01300           6870.000     2050.000    
N00917           250.000      2810.000    
N02002           5350.000     4330.000    
N00612           3450.000     5050.000    
N02316           6870.000     2270.000    
N02498           7170.000     3910.000    
N01007           7110.000     6110.000    
N01647           790.000      2210.000    
N01047           1690.000     4430.000    
N00303           6130.000     3370.000    
N00007           1710.000     2190.000    
N00437           7990.000     6450.000    
N00381           7370.000     1990.000    
N01446           5850.000     4230.000    
N02555           6070.000     6670.000    
N02383           4770.000     390.000     
N01847           7030.000     4150.000    
N00434           7370.000     6290.000    
N01443           6810.000     3910.000    
N02466           7430.000     4330.000    
N02049           3210.000     3930.000    
N01833           6930.000     3690.000    
N02585           9310.000     4950.000    
N00739           9370.000     4790.000    
N02727           9690.000     5010.000    
N02286           7090.000     6290.000    
N01906           4810.000     3370.000    
N01361           4710.000     5910.000    
N02471           7890.000     4290.000    
N02381           4730.000     350.000     
N00115           2230.000     2770.000    
N02838           4970.000     6170.000    
N01312           530.000      2490.000    
N00808           4210.000     2030.000    
N01144           8410.000     6370.000    
N02644           3150.000     4050.000    
N00189           3610.000     2010.000    
N01883           4890.000     2130.000    
N00987           5630.000     5990.000    
N01534           9870.000     5870.000    
N01313           330.000      2430.000    
N02658           2510.000     3510.000    
N01073           5530.000     4850.000    
N01411           1990.000     2610.000    
N01397           210.000      2470.000    
N02064           2110.000     4770.000    
N00901           5110.000     970.000     
N00865           7450.000     6450.000    
N01483           3950.000     2070.000    
N01485           3430.000     2370.000    
N01044           1150.000     3150.000    
N02523           1250.000     2970.000    
N00412           5530.000     4370.000    
N02718           3370.000     3170.000    
N00065           770.000      2230.000    
N00690           1910.000     4250.000    
N00217           5470.000     1750.000    
N02719           3290.000     3370.000    
N01658           3410.000     3230.000    
N01390           2550.000     1930.000    
N00162           2510.000     3110.000    
N02244           3970.000     6510.000    
N02656           2730.000     3730.000    
N00150           2350.000     2290.000    
N00499           5090.000     5770.000    
N02306           7470.000     7030.000    
N01594           9930.000     5870.000    
N01125           7990.000     1870.000    
N00990           6590.000     5910.000    
N02354           6050.000     630.000     
N01502           6850.000     2110.000    
N00779           1290.000     4230.000    
N00244           5350.000     2110.000    
N02645           2690.000     3850.000    
N01309           1190.000     2590.000    
N00642           5150.000     190.000     
N00539           7450.000     5430.000    
N00331           8330.000     3330.000    
N01666           7970.000     5470.000    
N01824           5530.000     4750.000    
N02017           5370.000     5050.000    
N00186           2890.000     2330.000    
N01963           4950.000     3450.000    
N02716           7150.000     3390.000    
N02786           2650.000     3310.000    
N02529           1590.000     4510.000    
N00219           5390.000     2150.000    
N00702           2950.000     4410.000    
N00608           790.000      4190.000    
N01725           6410.000     2790.000    
N02626           4410.000     2090.000    
N01346           2630.000     2290.000    
N01657           3170.000     3170.000    
N01684           5610.000     2370.000    
N00213           6890.000     390.000     
N00873           6870.000     850.000     
N00276           5410.000     3370.000    
N02540           7310.000     830.000     
N02327           6610.000     830.000     
N01574           6170.000     2590.000    
N02105           2630.000     5170.000    
N02630           4150.000     2110.000    
N00205           2990.000     3150.000    
N02446           7350.000     2730.000    
N01033           6810.000     3390.000    
N02817           7370.000     2870.000    
N01921           4550.000     3410.000    
N00691           1990.000     4150.000    
N00268           6150.000     2270.000    
N02697           1770.000     3030.000    
N00136           5150.000     130.000     
N00668           8150.000     6370.000    
N00826           5090.000     2410.000    
N00678           5450.000     3830.000    
N01629           5050.000     910.000     
N00298           5670.000     3390.000    
N02409           5510.000     6370.000    
N01365           2670.000     4990.000    
N01871           7370.000     3650.000    
N01449           6210.000     4390.000    
N00722           2870.000     4630.000    
N02391           4330.000     1810.000    
N00226           4690.000     2070.000    
N02751           730.000      4130.000    
N00645           5530.000     110.000     
N02028           4550.000     4910.000    
N02260           4450.000     5830.000    
N01843           6170.000     3990.000    
N02550           6050.000     6750.000    
N02584           9390.000     5070.000    
N01291           6050.000     6370.000    
N00191           3310.000     2310.000    
N00346           7130.000     2510.000    
N00314           1970.000     5570.000    
N01008           6690.000     5930.000    
N02269           7070.000     7110.000    
N00236           6390.000     130.000     
N01271           3910.000     2090.000    
N00829           5450.000     2890.000    
N01609           7830.000     1670.000    
N02272           6650.000     6810.000    
N01430           6910.000     3650.000    
N00786           7190.000     730.000     
N02643           3190.000     3910.000    
N00184           2150.000     2090.000    
N00510           5310.000     5930.000    
N00918           410.000      2790.000    
N02627           4310.000     2070.000    
N01479           4230.000     1670.000    
N01497           8110.000     2050.000    
N01777           6150.000     2430.000    
N02427           210.000      2370.000    
N02830           6630.000     6730.000    
N00433           7430.000     6590.000    
N01559           6870.000     2710.000    
N00235           6270.000     110.000     
N00948           6890.000     7210.000    
N02686           1950.000     4230.000    
N00489           5450.000     5170.000    
N02074           2250.000     3690.000    
N01599           9170.000     5030.000    
N02424           4570.000     3410.000    
N01935           4570.000     3430.000    
N00549           7390.000     5330.000    
N00074           5050.000     6150.000    
N00508           5090.000     5890.000    
N00324           3230.000     3610.000    
N00870           6870.000     730.000     
N01555           5430.000     3570.000    
N01523           7830.000     1590.000    
N02305           7470.000     7050.000    
N01812           5750.000     3730.000    
N00158           2410.000     3050.000    
N02029           4610.000     4950.000    
N00644           5370.000     130.000     
N00300           6010.000     3390.000    
N01835           6190.000     3890.000    
N00023           7350.000     7070.000    
N00501           5210.000     5790.000    
N02161           8510.000     4250.000    
N00540           7250.000     5350.000    
N00927           90.000       3830.000    
N00872           6710.000     670.000     
N01737           6670.000     3010.000    
N02251           4110.000     5970.000    
N01163           5990.000     270.000     
N00643           5290.000     150.000     
N00683           3510.000     3890.000    
N02530           1550.000     4550.000    
N02623           3150.000     2350.000    
N01700           7130.000     2750.000    
N01441           6250.000     3930.000    
N02377           7010.000     1150.000    
N01492           7110.000     2270.000    
N01817           6070.000     3710.000    
N01543           5530.000     710.000     
N01782           6370.000     2570.000    
N02804           9490.000     5270.000    
N02332           6410.000     890.000     
N01001           6910.000     6030.000    
N00537           8750.000     4190.000    
N01530           6390.000     5710.000    
N01128           8010.000     2830.000    
N02136           7930.000     4430.000    
N01484           4150.000     2030.000    
N00597           10010.000    5810.000    
N00925           430.000      2870.000    
N00684           3270.000     3870.000    
N02170           8910.000     4410.000    
N01444           6230.000     3990.000    
N01426           6850.000     3910.000    
N02575           5130.000     1010.000    
N01466           2530.000     2510.000    
N02668           2790.000     3270.000    
N02461           7390.000     5590.000    
N00159           2830.000     3110.000    
N01938           4710.000     3390.000    
N01753           7110.000     2310.000    
N01000           6790.000     5990.000    
N01464           2250.000     2850.000    
N01677           8270.000     2150.000    
N01054           1210.000     4150.000    
N00202           3350.000     3330.000    
N01331           7390.000     6130.000    
N01454           8250.000     2810.000    
N00452           7430.000     5010.000    
N02065           2230.000     4690.000    
N02285           7130.000     6210.000    
N02083           8290.000     2870.000    
N01042           2190.000     3670.000    
N01118           6470.000     3450.000    
N00831           5210.000     3430.000    
N00322           3170.000     3930.000    
N02375           7310.000     1190.000    
N02829           6630.000     6930.000    
N01804           5870.000     4350.000    
N00171           3370.000     2330.000    
N01002           6170.000     5650.000    
N00670           70.000       3890.000    
N01531           6230.000     5710.000    
N02752           890.000      4130.000    
N00941           4550.000     1210.000    
N01944           2710.000     2630.000    
N01742           6890.000     2990.000    
N01121           5510.000     3930.000    
N00335           7370.000     3310.000    
N02388           5070.000     930.000     
N01952           3190.000     2390.000    
N02432           6050.000     50.000      
N00155           1750.000     2970.000    
N01213           7650.000     6790.000    
N02178           2950.000     1590.000    
N01691           6890.000     3010.000    
N00482           5390.000     5910.000    
N02192           4410.000     590.000     
N01267           3490.000     3870.000    
N00117           2110.000     3010.000    
N02103           2530.000     5110.000    
N00321           3130.000     4110.000    
N01840           6830.000     4190.000    
N02006           5210.000     4510.000    
N01891           4950.000     4230.000    
N01532           6670.000     5670.000    
N00093           230.000      2250.000    
N00112           2450.000     2110.000    
N00783           570.000      4090.000    
N01799           5850.000     3990.000    
N01793           5510.000     3970.000    
N00218           5570.000     2150.000    
N00697           2190.000     3690.000    
N00256           6090.000     2090.000    
N01336           1910.000     5570.000    
N00103           2090.000     2350.000    
N02392           4370.000     1830.000    
N02799           9350.000     5070.000    
N00603           1950.000     4890.000    
N00796           2970.000     2370.000    
N00859           6450.000     6010.000    
N02501           6610.000     650.000     
N01760           7270.000     2510.000    
N01803           5870.000     4190.000    
N01060           970.000      4190.000    
N02147           3250.000     3150.000    
N00617           2050.000     5070.000    
N00104           2550.000     2330.000    
N00002           390.000      2130.000    
N00727           1210.000     2910.000    
N02213           7390.000     3570.000    
N01303           9390.000     5290.000    
N00270           6290.000     2090.000    
N01405           1550.000     3010.000    
N02722           9310.000     4990.000    
N02637           8570.000     5070.000    
N00363           7990.000     3330.000    
N01004           6630.000     5850.000    
N00100           2350.000     2250.000    
N02633           9550.000     5050.000    
N02835           6410.000     5690.000    
N02302           7110.000     6990.000    
N00395           7810.000     2070.000    
N02646           2010.000     4830.000    
N00858           7230.000     5450.000    
N01297           6630.000     2170.000    
N00876           7170.000     3690.000    
N01205           9210.000     5570.000    
N00915           150.000      2770.000    
N02127           7970.000     5090.000    
N01822           6830.000     3710.000    
N02510           10110.000    5590.000    
N00292           6190.000     3590.000    
N01762           7230.000     2330.000    
N00535           9530.000     5250.000    
N01836           6130.000     3950.000    
N02175           2590.000     2130.000    
N00251           5670.000     2150.000    
N02371           6950.000     1510.000    
N02160           8310.000     4250.000    
N02129           7910.000     4310.000    
N01622           7110.000     890.000     
N00367           7590.000     1170.000    
N00378           7390.000     870.000     
N01934           3390.000     2950.000    
N00224           4110.000     2070.000    
N00493           4730.000     5830.000    
N00177           2470.000     2310.000    
N00010           1070.000     2270.000    
N00546           7470.000     5070.000    
N00921           610.000      2810.000    
N00320           3050.000     4250.000    
N02412           8370.000     6550.000    
N00398           7630.000     2030.000    
N01943           2890.000     2830.000    
N01587           1910.000     4870.000    
N01645           310.000      1970.000    
N02605           5050.000     1010.000    
N02390           4330.000     1850.000    
N00443           7990.000     6190.000    
N00699           2210.000     5590.000    
N01744           6830.000     2090.000    
N02167           8910.000     4290.000    
N02549           6090.000     6550.000    
N01091           4990.000     6170.000    
N02744           6390.000     150.000     
N02106           2650.000     5090.000    
N02023           5710.000     5270.000    
N02256           4090.000     5950.000    
N00791           2410.000     5570.000    
N02552           6070.000     6730.000    
N02833           6170.000     5630.000    
N02072           2710.000     3730.000    
N01705           5710.000     2810.000    
N01527           6610.000     5850.000    
N01504           7370.000     6710.000    
N01750           6970.000     2290.000    
N02291           7310.000     6650.000    
N00602           1970.000     4990.000    
N01720           6650.000     3010.000    
N00652           6830.000     370.000     
N02119           7970.000     4990.000    
N00364           7950.000     3210.000    
N01389           2610.000     1870.000    
N01127           7890.000     2930.000    
N01772           6370.000     2550.000    
N01521           7970.000     3330.000    
N01333           3730.000     1910.000    
N02594           10250.000    5250.000    
N01302           6130.000     3030.000    
N02366           6970.000     1370.000    
N00194           3870.000     2110.000    
N01607           7250.000     2190.000    
N00392           7870.000     2350.000    
N02216           5110.000     6630.000    
N02088           8310.000     2750.000    
N02319           7790.000     2030.000    
N02818           7370.000     2650.000    
N00985           5950.000     6030.000    
N01606           7350.000     2290.000    
N00787           7110.000     810.000     
N02470           7410.000     4330.000    
N02191           4710.000     370.000     
N00087           6890.000     490.000     
N02208           6810.000     3350.000    
N02047           4970.000     5050.000    
N02259           4450.000     6230.000    
N02415           8070.000     6410.000    
N00997           6410.000     5910.000    
N01140           9910.000     6090.000    
N00254           6130.000     2050.000    
N00279           5490.000     3110.000    
N01384           7110.000     550.000     
N00445           8150.000     6350.000    
N02690           1870.000     4290.000    
N00016           6870.000     2090.000    
N01413           3090.000     4230.000    
N02314           6990.000     2090.000    
N01547           7530.000     3330.000    
N00402           6250.000     550.000     
N02469           7390.000     4370.000    
N01459           10430.000    6010.000    
N02352           6030.000     630.000     
N01420           6230.000     4350.000    
N01065           4610.000     6530.000    
N01598           10010.000    5910.000    
N02092           2910.000     5070.000    
N01858           7130.000     4170.000    
N01034           6870.000     3330.000    
N01919           4370.000     3350.000    
N00485           5110.000     5750.000    
N01811           5530.000     3750.000    
N01377           6170.000     3130.000    
N00405           5790.000     630.000     
N02612           6890.000     3970.000    
N02276           6630.000     6530.000    
N02182           2790.000     1770.000    
N02747           5430.000     2430.000    
N00864           7410.000     6590.000    
N01859           7170.000     4150.000    
N01855           6910.000     3690.000    
N01317           1230.000     2890.000    
N01736           6190.000     3030.000    
N01876           5410.000     2450.000    
N01015           1270.000     2590.000    
N02000           5210.000     4310.000    
N00928           150.000      3890.000    
N01727           6650.000     2570.000    
N00494           4890.000     5830.000    
N01265           4930.000     5090.000    
N00710           2950.000     4490.000    
N00811           4370.000     2050.000    
N00498           4970.000     5830.000    
N00707           4790.000     5770.000    
N02355           6090.000     990.000     
N00347           7910.000     2990.000    
N01254           8030.000     5090.000    
N01363           2670.000     5410.000    
N02408           5510.000     6330.000    
N00431           7730.000     6350.000    
N02246           4110.000     6250.000    
N00833           7270.000     710.000     
N00952           6630.000     7030.000    
N00916           150.000      2630.000    
N02085           8310.000     2870.000    
N01432           5990.000     3410.000    
N00014           7770.000     2050.000    
N02113           8010.000     5510.000    
N01038           5530.000     3410.000    
N01285           9190.000     5570.000    
N00107           2110.000     2550.000    
N01794           5510.000     4170.000    
N02735           9630.000     4990.000    
N02374           7310.000     1350.000    
N01009           5690.000     5270.000    
N01250           7390.000     7110.000    
N00267           6150.000     2050.000    
N01656           3170.000     3250.000    
N02199           4170.000     1550.000    
N01945           2490.000     2590.000    
N02738           9550.000     5250.000    
N01814           5870.000     4210.000    
N02284           6730.000     6050.000    
N00682           4010.000     4010.000    
N02118           7970.000     4610.000    
N02499           7370.000     3970.000    
N01406           1350.000     2930.000    
N02096           2590.000     5090.000    
N01311           630.000      2530.000    
N00816           4090.000     2110.000    
N01141           10050.000    5930.000    
N01827           6210.000     3730.000    
N00649           6090.000     70.000      
N02463           6990.000     4370.000    
N01385           2930.000     1530.000    
N01352           7330.000     790.000     
N02648           2890.000     3810.000    
N00681           4270.000     4090.000    
N01709           5810.000     3050.000    
N02503           6930.000     6050.000    
N00856           5310.000     5070.000    
N01198           10530.000    5130.000    
N00905           5690.000     630.000     
N02079           2230.000     3510.000    
N01993           5430.000     4350.000    
N02141           7950.000     4270.000    
N00166           1890.000     3050.000    
N01299           6730.000     2070.000    
N01899           5070.000     3410.000    
N01973           4450.000     4130.000    
N00005           1970.000     2190.000    
N00692           3210.000     3410.000    
N02279           6570.000     6010.000    
N02542           6070.000     6630.000    
N02274           6710.000     6710.000    
N01461           2470.000     3070.000    
N02114           7990.000     5650.000    
N02640           3030.000     3570.000    
N00045           9870.000     4910.000    
N00506           5390.000     5950.000    
N00777           1450.000     4290.000    
N01838           6530.000     4170.000    
N02507           10070.000    5710.000    
N01927           3790.000     2950.000    
N00040           6430.000     3330.000    
N01692           7090.000     2990.000    
N00648           6250.000     90.000      
N01690           5570.000     3050.000    
N01528           6610.000     5730.000    
N00894           6350.000     1110.000    
N00353           7990.000     3150.000    
N00693           3070.000     3370.000    
N00605           1490.000     4290.000    
N00773           1550.000     4390.000    
N00909           6210.000     3030.000    
N00980           7950.000     3850.000    
N01210           7450.000     6490.000    
N00817           3930.000     2130.000    
N00376           8050.000     2010.000    
N00879           8290.000     2810.000    
N02620           7350.000     2550.000    
N02815           6970.000     3010.000    
N02250           4090.000     6130.000    
N01098           8150.000     2090.000    
N01383           7050.000     510.000     
N01023           510.000      2870.000    
N01314           250.000      2430.000    
N02634           9450.000     5030.000    
N02058           2670.000     4010.000    
N00853           6070.000     6090.000    
N01337           2050.000     5570.000    
N01964           4770.000     3450.000    
N01378           7410.000     4710.000    
N00900           4490.000     1790.000    
N02514           4710.000     5870.000    
N00075           5170.000     6190.000    
N02299           6850.000     6330.000    
N02110           8010.000     6050.000    
N01055           1350.000     4190.000    
N00199           3230.000     3310.000    
N02067           2370.000     4510.000    
N01825           5530.000     4930.000    
N01508           8750.000     4150.000    
N00344           7930.000     3650.000    
N02671           2310.000     3150.000    
N00143           2310.000     3030.000    
N02502           7010.000     5610.000    
N00438           8010.000     6230.000    
N02010           4950.000     4690.000    
N01247           5550.000     150.000     
N02537           1350.000     4410.000    
N00556           6210.000     5670.000    
N02544           6050.000     6150.000    
N02328           6450.000     590.000     
N02231           4670.000     6430.000    
N00374           6770.000     330.000     
N00914           170.000      2750.000    
N01257           4510.000     4130.000    
N00963           3670.000     1950.000    
N02827           6090.000     6710.000    
N02076           2470.000     3710.000    
N01081           7330.000     1630.000    
N01947           3350.000     2710.000    
N01795           5730.000     4190.000    
N02583           9470.000     5250.000    
N01084           5470.000     2310.000    
N00406           5630.000     670.000     
N02568           6610.000     6230.000    
N00265           6150.000     1890.000    
N00651           6730.000     310.000     
N00288           6890.000     3350.000    
N00926           190.000      2930.000    
N02090           8290.000     2590.000    
N00264           5910.000     2090.000    
N00389           7950.000     1910.000    
N02313           7370.000     2230.000    
N02413           8430.000     6430.000    
N02570           7070.000     6430.000    
N02636           8730.000     5070.000    
N02539           7390.000     930.000     
N00024           7350.000     6990.000    
N01538           5590.000     2150.000    
N01306           1130.000     2890.000    
N01447           5890.000     4370.000    
N00440           8030.000     6410.000    
N02731           9370.000     5070.000    
N01103           8290.000     2490.000    
N00393           7690.000     2110.000    
N01100           8130.000     2090.000    
N02681           2470.000     3750.000    
N00132           4770.000     290.000     
N02174           2650.000     1990.000    
N00312           2550.000     5490.000    
N01640           5910.000     130.000     
N01757           5810.000     2570.000    
N00922           110.000      2830.000    
N02660           2730.000     3530.000    
N00721           1930.000     4850.000    
N01387           2710.000     1730.000    
N00801           3110.000     3010.000    
N02297           7090.000     6670.000    
N01830           6610.000     3710.000    
N00720           2750.000     4790.000    
N00951           6650.000     7170.000    
N01956           3330.000     3010.000    
N00446           7570.000     6330.000    
N00646           5710.000     110.000     
N02662           2510.000     3530.000    
N01434           6210.000     3470.000    
N02263           4210.000     6390.000    
N01040           2690.000     5110.000    
N00222           3710.000     2190.000    
N01115           6350.000     3350.000    
N01319           1290.000     2590.000    
N00490           5170.000     5950.000    
N01218           7470.000     7150.000    
N01266           3270.000     3830.000    
N01712           6190.000     2590.000    
N02443           7350.000     2510.000    
N02843           6110.000     5970.000    
N01281           1730.000     5110.000    
N02467           7430.000     4350.000    
N00263           6070.000     1950.000    
N00904           5550.000     690.000     
N01287           7970.000     5830.000    
N00513           4690.000     5830.000    
N01308           1250.000     2630.000    
N01539           5830.000     2150.000    
N00569           7430.000     6430.000    
N00444           7910.000     6330.000    
N02629           4310.000     2110.000    
N02545           5870.000     6310.000    
N00855           7290.000     5630.000    
N02566           6630.000     6230.000    
N00183           2010.000     2170.000    
N01162           5950.000     270.000     
N01730           6810.000     2770.000    
N00054           5510.000     5090.000    
N01905           4570.000     3330.000    
N00225           4270.000     2050.000    
N01327           7230.000     6170.000    
N01393           250.000      2130.000    
N01967           5430.000     3650.000    
N01865           7150.000     3690.000    
N01660           3490.000     2490.000    
N02816           7370.000     2970.000    
N02787           2770.000     3210.000    
N01584           3070.000     2390.000    
N02565           7870.000     3210.000    
N01520           8190.000     3330.000    
N00161           2030.000     2230.000    
N01914           2830.000     3150.000    
N00628           7850.000     1670.000    
N02052           4550.000     3670.000    
N02736           9830.000     4990.000    
N01374           1810.000     2190.000    
N01773           6390.000     2750.000    
N01886           5430.000     2870.000    
N01513           9670.000     5490.000    
N02458           7810.000     6790.000    
N02373           7010.000     1410.000    
N01655           3190.000     3290.000    
N00179           3690.000     2050.000    
N02776           4690.000     4210.000    
N02687           2190.000     3730.000    
N02513           4750.000     5870.000    
N01334           3890.000     1830.000    
N01456           8290.000     2610.000    
N02780           5130.000     6050.000    
N02016           5050.000     4850.000    
N00590           10030.000    5710.000    
N00172           2990.000     2370.000    
N01839           6670.000     4150.000    
N01728           6830.000     2770.000    
N01510           9750.000     5590.000    
N02472           7870.000     4270.000    
N02556           6250.000     6850.000    
N02019           5730.000     5270.000    
N02840           5310.000     6250.000    
N01142           10130.000    5970.000    
N01126           7690.000     1470.000    
N01135           9130.000     5450.000    
N01486           3510.000     2290.000    
N01714           6130.000     2810.000    
N00214           5450.000     2310.000    
N02032           4210.000     4950.000    
N00097           270.000      2070.000    
N01452           6850.000     2810.000    
N00795           2730.000     2370.000    
N01517           590.000      2230.000    
N00422           7070.000     850.000     
N00604           1610.000     4410.000    
N01480           4310.000     1810.000    
N02522           1190.000     3070.000    
N01611           7670.000     1390.000    
N02025           4590.000     4950.000    
N00869           4730.000     310.000     
N01724           6650.000     2790.000    
N02723           9190.000     4810.000    
N01460           2250.000     3050.000    
N02177           2650.000     1970.000    
N00109           2330.000     2330.000    
N02325           7090.000     530.000     
N00706           2470.000     5530.000    
N01651           1470.000     2190.000    
N00542           7450.000     5410.000    
N02262           4470.000     6270.000    
N00126           2730.000     1670.000    
N01409           1690.000     2670.000    
N00307           5670.000     3430.000    
N01019           510.000      2850.000    
N02389           4210.000     1670.000    
N00350           7910.000     3430.000    
N02440           1210.000     2570.000    
N02143           7950.000     3870.000    
N02509           10170.000    5430.000    
N02845           6130.000     5710.000    
N00708           3130.000     4170.000    
N01493           6330.000     2110.000    
N00934           6810.000     430.000     
N00782           710.000      4170.000    
N01761           7250.000     2510.000    
N01215           7790.000     6630.000    
N00488           5430.000     5250.000    
N01284           2250.000     5510.000    
N00385           7790.000     2010.000    
N02521           1210.000     2950.000    
N02713           7390.000     3310.000    
N02382           3410.000     2690.000    
N01481           4250.000     1590.000    
N00698           2130.000     5530.000    
N01072           5510.000     5030.000    
N02655           2890.000     3790.000    
N01563           9850.000     5770.000    
N02527           1650.000     4470.000    
N02081           8310.000     3170.000    
N01540           5430.000     2070.000    
N02794           7970.000     5870.000    
N00600           2110.000     5130.000    
N02729           9290.000     5010.000    
N01852           6910.000     4350.000    
N01342           3250.000     3790.000    
N02095           2950.000     5070.000    
N00106           2410.000     2390.000    
N00992           5910.000     5970.000    
N00541           7110.000     5530.000    
N00659           2530.000     2250.000    
N01989           5030.000     4290.000    
N02654           3210.000     3470.000    
N00198           3250.000     3210.000    
N02813           7350.000     3270.000    
N01940           3370.000     2830.000    
N01470           2710.000     1850.000    
N01450           6870.000     3050.000    
N00173           3150.000     2330.000    
N01260           4430.000     4710.000    
N02021           5130.000     5070.000    
N01412           3130.000     4070.000    
N02116           7950.000     4490.000    
N02082           8290.000     2990.000    
N02734           9390.000     5010.000    
N01581           5490.000     5090.000    
N01057           1690.000     4470.000    
N02070           2190.000     4750.000    
N01864           7350.000     3890.000    
N01354           1710.000     4710.000    
N01798           5750.000     3950.000    
N00122           2170.000     2290.000    
N01995           5210.000     3990.000    
N01576           5810.000     2710.000    
N01051           930.000      4150.000    
N00902           5250.000     870.000     
N00903           5430.000     750.000     
N00591           10110.000    5550.000    
N02476           7010.000     3910.000    
N02485           3470.000     2410.000    
N02491           6210.000     90.000      
N00379           7530.000     1030.000    
N02519           2610.000     3130.000    
N02483           7130.000     3330.000    
N02512           10070.000    5690.000    
N01610           7730.000     1510.000    
N00503           5090.000     6050.000    
N02765           7370.000     2930.000    
N02682           2410.000     3910.000    
N00203           3270.000     3510.000    
N00631           6030.000     150.000     
N02005           5070.000     4550.000    
N00239           5630.000     2090.000    
N01885           5450.000     2450.000    
N01652           1590.000     2190.000    
N02196           4150.000     1570.000    
N01495           6870.000     2030.000    
N00711           2210.000     5530.000    
N01821           6230.000     4150.000    
N01923           3770.000     3090.000    
N01274           3450.000     2490.000    
N01428           6910.000     3970.000    
N01796           5550.000     4010.000    
N02615           6610.000     3730.000    
N02493           5330.000     830.000     
N01771           6650.000     2530.000    
N01997           5230.000     3890.000    
N00168           3670.000     1990.000    
N02385           4550.000     510.000     
N01845           6710.000     4210.000    
N00021           6710.000     3390.000    
N02140           7950.000     4710.000    
N00486           5090.000     5850.000    
N01482           3290.000     2290.000    
N01686           5810.000     2550.000    
N02318           7610.000     2030.000    
N02281           7090.000     6550.000    
N02312           7390.000     2070.000    
N00794           2910.000     2390.000    
N00424           7350.000     5110.000    
N02249           4410.000     6050.000    
N01458           10130.000    5950.000    
N01996           5450.000     3970.000    
N02179           2890.000     1650.000    
N02801           7410.000     3470.000    
N01320           1450.000     2690.000    
N02258           4430.000     6050.000    
N00401           6070.000     570.000     
N00483           5550.000     5930.000    
N01408           1510.000     2710.000    
N01421           6930.000     4310.000    
N01090           6170.000     6290.000    
N01067           5590.000     2570.000    
N00810           4330.000     1890.000    
N02329           6290.000     570.000     
N02060           2390.000     4490.000    
N00416           6250.000     4410.000    
N00923           970.000      2870.000    
N00632           6150.000     130.000     
N00057           7410.000     4410.000    
N02606           4670.000     1270.000    
N01339           3150.000     3930.000    
N01062           4170.000     6410.000    
N00147           2090.000     3030.000    
N01751           7110.000     2290.000    
N02659           2510.000     3290.000    
N02749           670.000      4070.000    
N01295           6410.000     2110.000    
N02212           7390.000     3450.000    
N02137           7950.000     4730.000    
N00878           7650.000     2770.000    
N00891           8150.000     2810.000    
N02754           7450.000     3930.000    
N02450           8530.000     5070.000    
N00813           4170.000     2070.000    
N00575           8550.000     6530.000    
N02187           4410.000     570.000     
N02587           10370.000    5890.000    
N00124           2110.000     2170.000    
N01733           6390.000     2770.000    
N01491           7130.000     2090.000    
N00988           5490.000     5970.000    
N02725           8470.000     5050.000    
N02084           8350.000     2830.000    
N02133           7950.000     5090.000    
N01414           2970.000     4410.000    
N00551           5730.000     5250.000    
N02834           6290.000     5690.000    
N02057           2710.000     3850.000    
N00190           3750.000     1910.000    
N00368           7450.000     970.000     
N00798           3190.000     2690.000    
N01702           5970.000     2830.000    
N00111           2530.000     1950.000    
N01255           7970.000     5030.000    
N00955           7750.000     3890.000    
N01860           7150.000     3950.000    
N00384           7770.000     1910.000    
N02616           7270.000     1070.000    
N02261           4430.000     5970.000    
N00800           2850.000     2990.000    
N01738           6870.000     3010.000    
N02766           7350.000     2770.000    
N00654           6410.000     150.000     
N01074           5510.000     4410.000    
N01488           7330.000     1810.000    
N00019           6450.000     3430.000    
N00637           6170.000     90.000      
N00317           2610.000     5070.000    
N02370           7030.000     1050.000    
N01755           6910.000     2530.000    
N02528           1710.000     4410.000    
N02270           7110.000     7010.000    
N02125           7950.000     4750.000    
N02740           9110.000     5050.000    
N00332           7410.000     3890.000    
N01826           5530.000     4310.000    
N01478           4730.000     1250.000    
N02436           450.000      2470.000    
N00238           5470.000     2010.000    
N01344           2690.000     2290.000    
N00234           6110.000     70.000      
N00675           6130.000     2170.000    
N00116           2170.000     2910.000    
N01270           2930.000     2670.000    
N01659           3510.000     2330.000    
N00313           2390.000     5590.000    
N02087           8310.000     2810.000    
N01941           3430.000     2710.000    
N00998           6450.000     5950.000    
N00775           1790.000     4710.000    
N00261           6170.000     2150.000    
N02821           4990.000     2330.000    
N01113           6370.000     3330.000    
N01474           5170.000     950.000     
N02652           3210.000     3870.000    
N02122           7710.000     5090.000    
N00945           6710.000     7250.000    
N02841           5490.000     6330.000    
N01401           1510.000     2910.000    
N01256           4490.000     4150.000    
N01501           6850.000     2270.000    
N02134           7950.000     4650.000    
N00354           8070.000     3270.000    
N02310           7130.000     7010.000    
N00404           6090.000     570.000     
N00301           5710.000     3370.000    
N01026           2090.000     2630.000    
N01351           7170.000     610.000     
N00315           2570.000     5390.000    
N02715           7310.000     3370.000    
N01649           1050.000     2250.000    
N00308           5790.000     3490.000    
N00449           7290.000     5290.000    
N00008           1270.000     2250.000    
N02464           7350.000     4330.000    
N00211           6650.000     230.000     
N02164           8850.000     4370.000    
N00426           7410.000     5110.000    
N01496           6890.000     2010.000    
N00004           2350.000     2270.000    
N02680           2450.000     3730.000    
N00400           6030.000     570.000     
N02271           6610.000     6690.000    
N01711           6190.000     2990.000    
N02099           2270.000     5090.000    
N00614           3290.000     5090.000    
N00441           7750.000     6330.000    
N00409           7570.000     6310.000    
N00680           3130.000     3810.000    
N00979           7930.000     3670.000    
N01613           5970.000     190.000     
N01252           7750.000     5110.000    
N02462           7290.000     4370.000    
N01844           6190.000     3910.000    
N02611           4970.000     1070.000    
N00852           6650.000     6050.000    
N00797           3170.000     2870.000    
N01503           8010.000     6390.000    
N01809           5550.000     4210.000    
N02447           9010.000     5070.000    
N01901           4970.000     3390.000    
N00626           7690.000     1310.000    
N02742           9170.000     4950.000    
N00850           6010.000     6050.000    
N00063           350.000      2050.000    
N01797           5710.000     3510.000    
N00026           7930.000     3870.000    
N01316           1270.000     2650.000    
N02589           10350.000    5710.000    
N01370           1990.000     2630.000    
N01572           5930.000     2090.000    
N01293           6350.000     2470.000    
N02531           1390.000     4610.000    
N01329           7470.000     6170.000    
N02721           5790.000     6310.000    
N00619           1190.000     2950.000    
N02685           2210.000     3630.000    
N01076           3710.000     3270.000    
N01916           3730.000     3290.000    
N02268           6150.000     6710.000    
N01448           6090.000     4390.000    
N00266           6190.000     2050.000    
N01718           6610.000     3010.000    
N01129           7830.000     2850.000    
N02056           2810.000     3170.000    
N02236           4730.000     6430.000    
N00609           590.000      4090.000    
N02300           7110.000     6670.000    
N02428           8310.000     3330.000    
N02417           250.000      3970.000    
N01145           8450.000     6490.000    
N02457           7410.000     6810.000    
N02650           2950.000     3830.000    
N02368           6950.000     1430.000    
N02013           4670.000     4550.000    
N01298           6330.000     2130.000    
N01601           690.000      4270.000    
N02495           5930.000     50.000      
N02664           3010.000     3570.000    
N00248           5470.000     2270.000    
N00281           5590.000     3390.000    
N01467           2730.000     2470.000    
N02239           4670.000     6410.000    
N02441           7610.000     3370.000    
N01591           6030.000     6710.000    
N02792           7470.000     4330.000    
N02248           4270.000     6030.000    
N01862           7150.000     3910.000    
N02670           2770.000     3330.000    
N01442           6390.000     3990.000    
N02111           7990.000     5190.000    
N01131           7830.000     2810.000    
N00457           6970.000     5670.000    
N00676           5470.000     1710.000    
N00055           7410.000     5010.000    
N00687           3850.000     3950.000    
N02707           3370.000     2730.000    
N00294           6250.000     3370.000    
N02104           2590.000     5150.000    
N02148           3310.000     3130.000    
N00209           3350.000     3170.000    
N02535           1390.000     4550.000    
N01767           6870.000     2530.000    
N02144           7990.000     3890.000    
N00835           7230.000     690.000     
N00359           8030.000     3350.000    
N01907           4890.000     3390.000    
N01282           1830.000     4950.000    
N02750           850.000      4110.000    
N00442           7910.000     6310.000    
N00984           6570.000     5910.000    
N01912           3030.000     3170.000    
N02242           4210.000     6410.000    
N00329           7310.000     1870.000    
N01857           7130.000     3450.000    
N01117           6630.000     3450.000    
N01028           7350.000     2330.000    
N01059           1930.000     4790.000    
N01325           7150.000     6150.000    
N00293           6210.000     3290.000    
N00427           7550.000     5190.000    
N01650           1230.000     2210.000    
N00326           6770.000     2070.000    
N01451           6870.000     2970.000    
N01654           6290.000     2070.000    
N01781           6190.000     2530.000    
N00615           3130.000     5090.000    
N00700           2330.000     5530.000    
N02814           7350.000     3110.000    
N00713           2550.000     5330.000    
N00006           1890.000     2170.000    
N02331           6330.000     1010.000    
N02703           7450.000     3310.000    
N00099           1870.000     2150.000    
N00089           6510.000     270.000     
N00714           2730.000     4890.000    
N01289           7970.000     5390.000    
N01286           4550.000     3730.000    
N00647           5850.000     130.000     
N02642           3250.000     3570.000    
N00455           7370.000     5330.000    
N01367           4110.000     3310.000    
N00415           6910.000     4390.000    
N00986           5790.000     6050.000    
N02442           7370.000     2510.000    
N00550           5570.000     5110.000    
N00383           7370.000     2310.000    
N02035           4930.000     5070.000    
N01982           4410.000     5730.000    
N02130           7930.000     4230.000    
N01942           2890.000     2670.000    
N00705           1950.000     4830.000    
N02781           5070.000     6110.000    
N00257           6210.000     2130.000    
N00390           7890.000     2090.000    
N01358           6270.000     3410.000    
N01512           9550.000     5310.000    
N00723           2770.000     4810.000    
N01209           7430.000     4750.000    
N00003           250.000      1990.000    
N02639           2770.000     3790.000    
N01010           6110.000     5930.000    
N01075           5530.000     5030.000    
N02429           2850.000     3130.000    
N00665           8010.000     6750.000    
N01785           5470.000     2610.000    
N00396           7770.000     2150.000    
N00505           4850.000     5890.000    
N00241           5270.000     2170.000    
N01879           5030.000     2390.000    
N02748           490.000      4010.000    
N02061           2510.000     4270.000    
N01577           6950.000     2310.000    
N00319           2790.000     4730.000    
N00208           3130.000     3150.000    
N00167           3810.000     1890.000    
N01439           6190.000     3750.000    
N00212           6750.000     310.000     
N00596           9950.000     5950.000    
N02708           3370.000     2750.000    
N00989           5350.000     5950.000    
N00423           7490.000     5110.000    
N01697           6390.000     2790.000    
N00430           7930.000     6470.000    
N00585           9930.000     5890.000    
N02820           4850.000     2250.000    
N00195           4010.000     2070.000    
N01069           4730.000     5790.000    
N01615           5770.000     150.000     
N02135           7950.000     4410.000    
N01681           5810.000     2210.000    
N02145           3270.000     3150.000    
N01276           2810.000     4730.000    
N01688           5770.000     2350.000    
N01093           5290.000     6270.000    
N00770           10570.000    6030.000    
N01925           4750.000     3410.000    
N02588           10190.000    5710.000    
N00740           9310.000     4910.000    
N00283           5530.000     3450.000    
N00672           550.000      4050.000    
N02411           8430.000     6470.000    
N02603           7370.000     2550.000    
N01132           7910.000     2750.000    
N01379           7590.000     4710.000    
N01185           10210.000    5710.000    
N02543           6050.000     6290.000    
N02669           2530.000     3290.000    
N00744           8770.000     4550.000    
N02027           4910.000     5030.000    
N02761           5410.000     2890.000    
N00892           6350.000     1210.000    
N01500           6870.000     2450.000    
N01936           4570.000     3610.000    
N01021           590.000      2850.000    
N00041           6590.000     3310.000    
N00694           2790.000     3350.000    
N00138           5430.000     70.000      
N01259           4370.000     4810.000    
N01932           3290.000     3390.000    
N00822           5230.000     2110.000    
N01949           3350.000     2910.000    
N01341           3730.000     3230.000    
N00009           1190.000     2250.000    
N00272           5510.000     3730.000    
N02215           5030.000     6550.000    
N02693           1810.000     4370.000    
N01249           5230.000     210.000     
N01536           10230.000    5310.000    
N02287           7070.000     6190.000    
N00962           3550.000     2070.000    
N00496           5210.000     5890.000    
N01086           7410.000     3130.000    
N01372           1610.000     2730.000    
N01305           1210.000     3010.000    
N01102           8290.000     2370.000    
N01066           5470.000     2530.000    
N00176           2710.000     2370.000    
N01030           6890.000     3370.000    
N01283           1950.000     5570.000    
N01913           2930.000     3190.000    
N01453           6070.000     3310.000    
N01988           5070.000     4310.000    
N02610           4690.000     1250.000    
N02532           1390.000     4590.000    
N02705           3390.000     2650.000    
N01957           4430.000     4730.000    
N01064           4570.000     6670.000    
N01541           5330.000     2090.000    
N01147           8450.000     6510.000    
N01429           6910.000     4130.000    
N00587           9810.000     5750.000    
N02384           4770.000     410.000     
N01382           7150.000     610.000     
N01966           5470.000     3670.000    
N02444           7350.000     2610.000    
N02034           4490.000     4850.000    
N02438           830.000      2510.000    
N02264           4370.000     5830.000    
N02014           5350.000     4690.000    
N00664           8030.000     6610.000    
N02267           6610.000     6670.000    
N01747           6830.000     2250.000    
N01790           5830.000     2570.000    
N00148           2210.000     2770.000    
N01889           5410.000     3450.000    
N00823           5350.000     2030.000    
N00784           310.000      4030.000    
N00624           7650.000     1270.000    
N01077           5110.000     3390.000    
N00769           10350.000    6010.000    
N00339           7870.000     3190.000    
N01766           6870.000     2770.000    
N01778           6150.000     2570.000    
N02292           7810.000     6630.000    
N00341           8010.000     3310.000    
N00053           4410.000     4790.000    
N01667           7950.000     5390.000    
N00509           5090.000     5970.000    
N02768           7110.000     2770.000    
N01457           8370.000     3310.000    
N02567           6790.000     6290.000    
N00360           7930.000     3450.000    
N01910           3770.000     3270.000    
N01176           10410.000    5210.000    
N01729           6670.000     2790.000    
N00834           7130.000     550.000     
N01703           5710.000     2830.000    
N00086           6810.000     690.000     
N02596           10430.000    5350.000    
N00661           2610.000     2030.000    
N00525           4350.000     5770.000    
N01345           2830.000     2330.000    
N00309           5670.000     3450.000    
N01819           6870.000     4350.000    
N01754           6910.000     2770.000    
N01427           6910.000     3850.000    
N01588           1910.000     4810.000    
N01643           7330.000     1790.000    
N00851           5770.000     6070.000    
N02569           7050.000     6430.000    
N02211           7390.000     3290.000    
N00965           3490.000     2150.000    
N00538           7430.000     5070.000    
N00964           3370.000     2250.000    
N01834           6970.000     3950.000    
N01003           5930.000     5450.000    
N00135           5050.000     170.000     
N00012           830.000      2250.000    
N02666           3210.000     3610.000    
N01873           5410.000     1710.000    
N01884           5390.000     2850.000    
N01716           6210.000     2830.000    
N01902           4890.000     3370.000    
N01805           5850.000     3930.000    
N00606           1230.000     4190.000    
N02426           190.000      2450.000    
N01687           5610.000     2350.000    
N01779           6150.000     2550.000    
N00495           5070.000     5870.000    
N01775           6550.000     2530.000    
N01776           6150.000     2610.000    
N00071           8070.000     2030.000    
N02171           9010.000     4570.000    
N01522           7750.000     1410.000    
N02524           1230.000     2850.000    
N01112           5750.000     3750.000    
N00458           6690.000     5690.000    
N00552           5930.000     5410.000    
N00849           5530.000     6010.000    
N02632           9650.000     5030.000    
N00836           7230.000     670.000     
N01068           4530.000     5750.000    
N00386           7850.000     1810.000    
N02298           7090.000     6430.000    
N01968           5250.000     3670.000    
N02435           250.000      2410.000    
N01565           10030.000    5770.000    
N00568           7430.000     6510.000    
N01696           5950.000     3050.000    
N01602           730.000      4290.000    
N00180           3730.000     1950.000    
N01739           6870.000     2750.000    
N02590           10150.000    5710.000    
N01277           2630.000     5030.000    
N00035           6510.000     5990.000    
N02506           8590.000     6550.000    
N00125           2610.000     1810.000    
N01807           5850.000     4190.000    
N00932           1050.000     4150.000    
N01253           7590.000     5110.000    
N01391           6670.000     270.000     
N01050           1490.000     4230.000    
N00545           7430.000     4910.000    
N02044           4790.000     5290.000    
N02795           7990.000     5870.000    
N01631           4790.000     330.000     
N01579           7910.000     3870.000    
N01637           5550.000     130.000     
N00592           10530.000    6070.000    
N00640           5730.000     50.000      

[REPORT]
INPUT NO
CONTROLS NO
NODES ALL
LINKS ALL
