[TITLE]
Gravity-consistent road-derived conceptual drainage network

[OPTIONS]
FLOW_UNITS           CMS
FLOW_ROUTING         DYNWAVE
START_DATE           01/01/2026
START_TIME           00:00:00
REPORT_START_DATE    01/01/2026
REPORT_START_TIME    00:00:00
END_DATE             01/01/2026
END_TIME             06:00:00
REPORT_STEP          00:05:00
WET_STEP             00:00:30
DRY_STEP             00:05:00
ROUTING_STEP         0.500
ALLOW_PONDING        YES
INERTIAL_DAMPING     PARTIAL
VARIABLE_STEP        0.20
MINIMUM_STEP         0.05
LENGTHENING_STEP     5.0
NORMAL_FLOW_LIMITED  BOTH
FORCE_MAIN_EQUATION  H-W
SURCHARGE_METHOD     SLOT
MAX_TRIALS           50
HEAD_TOLERANCE       0.0015
THREADS              1

[EVAPORATION]
CONSTANT 0.0
DRY_ONLY NO

[JUNCTIONS]
N01738           5.1714       1.5000     0 0 20
N01421           9.4457       1.5000     0 0 20
N02241           26.4541      3.0737     0 0 20
N00314           47.5505      1.5000     0 0 20
N02766           4.3171       1.5000     0 0 20
N00947           45.7852      1.5000     0 0 20
N00339           4.0753       2.4584     0 0 20
N01471           3.0337       1.5361     0 0 20
N00113           4.4115       1.5000     0 0 20
N01218           47.2086      1.5000     0 0 20
N02236           28.7787      3.6170     0 0 20
N00312           47.9686      1.9256     0 0 20
N00220           10.8762      1.5000     0 0 20
N00700           46.9261      1.5000     0 0 20
N00387           3.9493       2.1789     0 0 20
N01352           6.6585       1.5000     0 0 20
N00688           10.5497      1.5000     0 0 20
N00020           6.8574       1.5000     0 0 20
N02099           32.0383      1.5000     0 0 20
N00335           5.2917       1.5000     0 0 20
N01681           4.9255       1.5000     0 0 20
N02191           2.4641       1.7955     0 0 20
N00887           8.3749       1.5000     0 0 20
N00270           4.8262       1.5000     0 0 20
N01858           8.6554       1.5000     0 0 20
N02845           22.3368      1.5000     0 0 20
N01274           4.0522       1.5000     0 0 20
N02676           12.8852      1.5000     0 0 20
N00902           2.8122       1.5000     0 0 20
N00996           20.6634      1.5000     0 0 20
N01333           3.9542       1.5000     0 0 20
N02268           26.4578      5.4925     0 0 20
N02162           10.8096      1.5293     0 0 20
N00160           4.7179       1.5000     0 0 20
N01373           6.7731       1.5000     0 0 20
N01720           5.9370       1.5000     0 0 20
N01693           4.6588       1.5000     0 0 20
N01025           8.1484       6.7712     0 0 20
N00607           38.1394      3.0963     0 0 20
N02557           25.1997      1.5000     0 0 20
N02251           22.7866      4.5412     0 0 20
N01691           4.9794       1.5000     0 0 20
N01361           16.3192      1.5000     0 0 20
N01936           22.8953      1.5000     0 0 20
N00946           40.1075      7.2837     0 0 20
N01317           24.6200      2.4715     0 0 20
N00252           5.1520       1.5000     0 0 20
N00326           3.7723       1.5739     0 0 20
N02127           10.3460      1.5000     0 0 20
N01772           4.9210       1.5000     0 0 20
N00249           4.2308       1.5000     0 0 20
N02166           14.1464      1.5000     0 0 20
N01694           5.3708       1.6700     0 0 20
N02046           10.0301      1.5000     0 0 20
N02297           29.3363      1.5000     0 0 20
N01927           10.4144      1.5000     0 0 20
N02292           28.1123      1.5000     0 0 20
N02840           20.7885      1.5000     0 0 20
N02302           45.1264      1.5000     0 0 20
N00156           9.3572       1.5000     0 0 20
N01953           3.8163       1.5000     0 0 20
N02699           3.0123       1.5000     0 0 20
N02057           11.8631      1.5000     0 0 20
N01798           7.5604       1.5000     0 0 20
N01650           7.6023       1.6278     0 0 20
N00177           4.1038       1.5000     0 0 20
N00618           32.0450      1.5000     0 0 20
N01754           4.5901       1.5000     0 0 20
N01842           18.5731      1.5000     0 0 20
N02110           19.4167      1.5000     0 0 20
N00133           4.9622       1.5000     0 0 20
N01857           5.8266       1.5000     0 0 20
N02547           19.4785      1.5000     0 0 20
N01770           4.9010       1.5200     0 0 20
N00153           3.2378       1.5000     0 0 20
N01685           4.7477       1.5000     0 0 20
N01575           4.9848       1.5000     0 0 20
N01658           7.1389       1.5000     0 0 20
N00214           4.7098       1.5677     0 0 20
N02671           11.1352      1.5000     0 0 20
N01930           8.6838       1.5000     0 0 20
N02844           20.1884      1.5000     0 0 20
N02509           19.1434      1.5000     0 0 20
N00541           14.8196      1.5000     0 0 20
N00815           8.4740       1.5000     0 0 20
N00661           3.1926       1.9770     0 0 20
N00111           3.3021       1.5000     0 0 20
N01076           12.0303      1.5000     0 0 20
N02466           8.8560       1.5000     0 0 20
N00641           2.3721       1.5000     0 0 20
N00412           24.6379      1.5000     0 0 20
N00161           4.7057       1.5000     0 0 20
N00923           27.2454      1.5000     0 0 20
N01460           9.3256       1.9180     0 0 20
N01450           5.3500       1.5000     0 0 20
N00095           5.9644       1.5000     0 0 20
N02299           19.9147      1.5000     0 0 20
N01082           3.2164       1.6021     0 0 20
N02640           7.2348       2.1920     0 0 20
N01258           23.5648      1.5000     0 0 20
N00872           3.0875       1.5000     0 0 20
N01576           4.9848       1.5000     0 0 20
N02609           5.4910       1.7140     0 0 20
N02627           9.8546       1.5000     0 0 20
N01070           10.8294      1.5000     0 0 20
N01021           39.5009      1.5000     0 0 20
N00228           4.4238       1.5000     0 0 20
N00388           4.7531       1.5000     0 0 20
N00248           4.8682       1.5000     0 0 20
N00026           6.2945       1.5000     0 0 20
N02328           3.4056       1.5000     0 0 20
N01539           6.6922       1.5000     0 0 20
N01584           3.6266       1.5000     0 0 20
N02144           4.8376       1.5000     0 0 20
N02795           12.8431      1.5000     0 0 20
N02074           14.3338      1.5000     0 0 20
N02023           20.6105      1.5000     0 0 20
N00208           6.4399       1.5000     0 0 20
N01045           11.0187      1.5000     0 0 20
N00346           4.3395       1.6241     0 0 20
N00596           21.8839      1.5000     0 0 20
N01186           19.3249      1.5000     0 0 20
N01822           7.2349       1.5000     0 0 20
N02169           11.4587      1.5000     0 0 20
N00800           6.6427       1.5000     0 0 20
N01641           2.3721       1.5000     0 0 20
N00055           13.3180      1.5000     0 0 20
N00570           19.5630      1.5000     0 0 20
N01012           3.3564       1.5000     0 0 20
N01344           3.4577       1.5728     0 0 20
N01310           16.9282      1.9096     0 0 20
N00007           6.4895       2.4069     0 0 20
N01663           2.7999       1.5000     0 0 20
N00162           9.0548       1.5000     0 0 20
N00856           12.9803      1.5000     0 0 20
N00983           22.0979      1.5000     0 0 20
N01052           31.1712      1.5000     0 0 20
N01786           6.1592       1.5000     0 0 20
N02081           3.7241       1.9239     0 0 20
N00074           17.8999      1.5000     0 0 20
N01723           5.4207       1.5000     0 0 20
N01781           5.0047       1.5000     0 0 20
N01121           8.4536       1.5000     0 0 20
N00655           3.0735       1.5000     0 0 20
N01878           20.2623      1.5000     0 0 20
N02548           24.0446      1.5000     0 0 20
N01077           10.1023      1.5000     0 0 20
N00425           13.1493      1.5000     0 0 20
N00194           6.2916       1.5000     0 0 20
N01425           9.8257       1.5000     0 0 20
N02812           5.5670       1.5000     0 0 20
N00643           2.3321       1.5400     0 0 20
N01871           6.3587       1.5000     0 0 20
N01707           4.8389       1.6950     0 0 20
N01761           4.2211       1.5000     0 0 20
N02588           21.5423      1.5000     0 0 20
N01296           6.6743       1.5000     0 0 20
N02383           2.8854       1.5000     0 0 20
N02515           16.7703      1.5000     0 0 20
N02212           6.3657       1.5000     0 0 20
N00295           7.5721       1.5000     0 0 20
N00707           15.9346      1.5000     0 0 20
N01432           5.6250       1.5000     0 0 20
N00040           7.2371       1.5000     0 0 20
N02210           5.9609       1.5000     0 0 20
N01821           13.6090      1.5000     0 0 20
N00820           7.2661       1.5000     0 0 20
N02331           13.9485      1.5000     0 0 20
N02445           4.1303       1.5000     0 0 20
N01964           15.6486      1.5000     0 0 20
N02707           4.2125       1.5000     0 0 20
N00668           26.8021      1.5000     0 0 20
N00689           8.6514       1.5000     0 0 20
N02658           11.1250      1.5000     0 0 20
N02520           10.1410      1.5000     0 0 20
N00114           6.3586       1.5000     0 0 20
N01544           3.6116       1.5000     0 0 20
N01441           10.2095      1.5000     0 0 20
N01453           6.2010       1.5000     0 0 20
N01147           36.5844      1.5000     0 0 20
N01404           3.5487       1.5000     0 0 20
N01049           33.4818      1.6539     0 0 20
N01935           20.1212      1.5000     0 0 20
N00283           5.5861       1.5000     0 0 20
N00984           22.4186      2.0976     0 0 20
N01309           16.2489      1.5000     0 0 20
N00611           38.8512      1.5000     0 0 20
N00925           28.9761      4.0626     0 0 20
N00128           3.0697       1.5000     0 0 20
N00682           11.9109      1.5000     0 0 20
N01959           23.2836      1.5000     0 0 20
N01853           8.0748       1.5000     0 0 20
N02791           8.3442       2.1679     0 0 20
N00069           6.8618       1.5000     0 0 20
N02528           26.0086      1.5000     0 0 20
N00705           34.3289      5.0078     0 0 20
N01877           19.2538      1.5000     0 0 20
N02364           3.6674       2.0139     0 0 20
N00568           24.0144      1.5000     0 0 20
N00202           6.3346       1.5000     0 0 20
N01284           46.7844      1.8966     0 0 20
N02053           11.9109      1.5000     0 0 20
N02687           14.0883      1.5000     0 0 20
N02454           5.6418       1.5000     0 0 20
N01792           6.6467       1.5000     0 0 20
N02123           9.8249       1.5000     0 0 20
N01706           4.9096       1.5752     0 0 20
N00429           20.8812      1.5000     0 0 20
N02496           2.9313       1.5000     0 0 20
N02761           5.0700       1.5000     0 0 20
N00015           4.5436       1.5000     0 0 20
N01302           5.3652       1.5000     0 0 20
N02584           18.8361      1.5000     0 0 20
N00799           5.0536       1.5000     0 0 20
N01824           12.8476      1.5000     0 0 20
N02470           8.5857       1.5000     0 0 20
N01924           9.2903       1.5000     0 0 20
N01727           4.8724       1.5486     0 0 20
N00171           3.6266       1.5000     0 0 20
N01429           8.9885       1.5000     0 0 20
N02291           28.8582      1.5000     0 0 20
N00200           6.2922       1.6241     0 0 20
N02542           25.7791      1.5000     0 0 20
N01422           8.5563       1.5000     0 0 20
N01240           19.4007      1.5000     0 0 20
N00628           8.0481       1.5000     0 0 20
N00534           18.9750      1.5000     0 0 20
N00263           6.2365       1.5000     0 0 20
N01122           6.5812       1.7115     0 0 20
N02730           19.9826      1.5000     0 0 20
N01331           14.3402      1.9723     0 0 20
N00673           13.3270      1.5000     0 0 20
N02746           7.6714       1.5000     0 0 20
N01137           19.4072      1.5000     0 0 20
N02586           16.0268      1.5000     0 0 20
N02639           11.8206      1.5203     0 0 20
N00863           31.7020      1.5000     0 0 20
N00653           2.2523       2.0044     0 0 20
N00297           11.6888      1.5000     0 0 20
N02319           4.0083       1.5000     0 0 20
N02021           12.4954      1.5000     0 0 20
N01116           7.1506       1.5000     0 0 20
N00452           13.1299      1.5000     0 0 20
N01457           4.5132       1.5000     0 0 20
N02504           18.0816      1.5000     0 0 20
N00890           3.7383       1.5000     0 0 20
N00911           18.7114      1.5000     0 0 20
N02438           16.9423      1.5000     0 0 20
N01325           18.0309      1.5506     0 0 20
N02722           18.7185      1.5473     0 0 20
N00549           13.9206      1.6913     0 0 20
N02607           5.8892       1.5000     0 0 20
N02254           19.5800      1.5000     0 0 20
N02667           7.2490       1.5000     0 0 20
N00882           3.5758       1.6625     0 0 20
N01528           23.0406      1.5000     0 0 20
N01652           6.9173       1.5000     0 0 20
N02798           19.1321      2.0709     0 0 20
N02373           3.4814       1.5000     0 0 20
N01399           25.5130      1.5000     0 0 20
N01340           7.1521       1.5000     0 0 20
N00821           6.4638       1.5000     0 0 20
N00706           48.0133      1.5000     0 0 20
N01034           6.3498       1.5000     0 0 20
N01812           6.1856       1.5000     0 0 20
N00933           3.4998       1.5000     0 0 20
N02301           36.2989      1.5000     0 0 20
N02145           5.7306       1.5000     0 0 20
N01646           8.1177       1.5000     0 0 20
N00681           20.6650      1.5000     0 0 20
N02689           26.0723      1.5000     0 0 20
N02541           6.6362       1.5000     0 0 20
N01667           10.8955      1.5000     0 0 20
N00718           25.9828      1.5000     0 0 20
N01486           3.9859       1.5000     0 0 20
N01686           4.6477       2.0834     0 0 20
N02552           34.7040      5.8886     0 0 20
N02785           9.8831       1.5000     0 0 20
N02388           2.6935       1.6040     0 0 20
N02088           2.9867       1.5316     0 0 20
N02575           3.0183       1.5000     0 0 20
N02175           3.1143       1.9417     0 0 20
N00569           22.0816      1.8440     0 0 20
N02020           11.0149      1.5000     0 0 20
N01726           4.9724       1.5000     0 0 20
N00832           2.3893       1.5000     0 0 20
N02113           10.8755      1.5200     0 0 20
N00002           7.9002       1.5000     0 0 20
N02754           7.4761       1.5000     0 0 20
N02439           16.6933      1.5000     0 0 20
N01164           1.5039       1.5000     0 0 20
N00660           3.1343       1.9915     0 0 20
N02462           9.9620       1.5000     0 0 20
N00635           2.5614       1.5000     0 0 20
N01845           10.3528      1.5000     0 0 20
N00426           12.5217      1.5000     0 0 20
N01212           33.4655      1.5000     0 0 20
N02107           30.6712      1.5000     0 0 20
N01054           37.5311      1.5000     0 0 20
N01080           3.9066       1.9802     0 0 20
N01560           11.8968      1.5141     0 0 20
N00017           4.4557       1.5000     0 0 20
N00306           7.9296       1.5000     0 0 20
N00140           2.9858       1.5000     0 0 20
N02001           9.9787       1.6543     0 0 20
N02066           24.1914      3.6782     0 0 20
N02273           40.1585      1.5000     0 0 20
N01925           15.5739      1.5000     0 0 20
N02510           20.7649      1.5000     0 0 20
N02368           3.2452       1.5000     0 0 20
N02096           28.8698      1.5000     0 0 20
N02298           20.9727      1.5000     0 0 20
N00019           7.2402       1.5000     0 0 20
N00698           47.2149      1.5000     0 0 20
N02437           17.9242      1.5000     0 0 20
N00955           6.1050       1.5000     0 0 20
N00914           13.5507      1.5000     0 0 20
N00241           4.8394       1.5000     0 0 20
N01732           4.9848       1.5000     0 0 20
N00355           6.6507       1.5000     0 0 20
N00634           2.5971       1.5000     0 0 20
N02836           22.1005      2.1814     0 0 20
N00851           17.1184      1.5000     0 0 20
N01578           6.3009       1.5000     0 0 20
N00723           22.6317      1.5000     0 0 20
N01815           9.0256       1.5000     0 0 20
N00656           3.0564       1.5000     0 0 20
N00722           22.4078      1.5000     0 0 20
N00021           8.6789       1.5000     0 0 20
N02149           6.2776       1.5000     0 0 20
N00399           4.0289       1.5000     0 0 20
N01626           3.8260       2.0472     0 0 20
N01498           8.4025       1.5000     0 0 20
N00309           5.5591       1.5000     0 0 20
N00265           4.5003       1.5000     0 0 20
N00101           4.6234       1.5000     0 0 20
N01991           13.6665      1.5000     0 0 20
N00545           13.4513      1.5000     0 0 20
N01553           8.8422       1.5000     0 0 20
N00281           5.4501       1.6089     0 0 20
N02028           19.2302      1.5000     0 0 20
N00702           19.3224      1.5000     0 0 20
N02018           25.9370      1.5000     0 0 20
N01843           10.8517      1.5000     0 0 20
N00236           2.7103       1.5434     0 0 20
N01566           21.0498      1.5000     0 0 20
N01854           7.7161       1.5000     0 0 20
N02409           25.0562      1.5000     0 0 20
N01784           5.9334       1.5000     0 0 20
N02638           12.9710      1.5000     0 0 20
N02661           8.8654       1.5000     0 0 20
N01561           11.7827      1.6282     0 0 20
N00291           10.0379      1.5000     0 0 20
N01609           3.8614       1.5000     0 0 20
N02426           13.8252      1.5000     0 0 20
N02446           4.1303       1.5000     0 0 20
N01536           18.8548      1.5000     0 0 20
N01264           19.2442      1.5000     0 0 20
N01337           47.4977      1.5000     0 0 20
N01276           22.5320      1.5000     0 0 20
N00930           40.6101      1.5000     0 0 20
N01370           7.8544       1.5000     0 0 20
N01279           19.2393      1.5000     0 0 20
N02731           18.8394      1.5000     0 0 20
N02820           13.7807      1.5000     0 0 20
N02681           13.4312      1.5000     0 0 20
N00510           15.9709      1.5000     0 0 20
N02215           32.1855      1.5000     0 0 20
N01281           46.0490      1.5000     0 0 20
N01722           6.3290       1.5000     0 0 20
N02809           6.4998       1.5000     0 0 20
N00318           25.8593      1.5000     0 0 20
N02391           5.8247       1.5000     0 0 20
N01911           7.1021       1.9253     0 0 20
N01718           6.0312       1.5000     0 0 20
N00450           12.4804      1.6357     0 0 20
N01619           4.8597       1.5000     0 0 20
N01631           2.2867       1.9599     0 0 20
N01785           5.2854       1.5400     0 0 20
N02308           43.1894      1.5000     0 0 20
N02259           19.4337      1.5000     0 0 20
N02256           25.6150      2.5212     0 0 20
N02372           3.7778       1.5000     0 0 20
N02786           8.5479       1.5000     0 0 20
N02022           13.2128      1.5000     0 0 20
N02014           9.1211       1.5000     0 0 20
N02432           2.2058       1.9768     0 0 20
N02108           27.3673      1.5000     0 0 20
N00633           3.0649       1.5000     0 0 20
N01072           13.6751      1.5000     0 0 20
N02468           8.5380       1.5000     0 0 20
N00490           15.7933      1.5000     0 0 20
N01133           9.1588       1.5000     0 0 20
N01394           12.3135      1.5653     0 0 20
N02117           9.1805       1.5000     0 0 20
N02434           3.4582       1.5000     0 0 20
N01734           5.0536       1.5000     0 0 20
N01372           14.4741      1.5069     0 0 20
N01252           10.4863      1.5000     0 0 20
N01692           5.3998       1.5000     0 0 20
N01013           3.2704       1.5063     0 0 20
N02502           15.2349      2.0526     0 0 20
N01449           18.7751      1.5000     0 0 20
N01893           28.1770      1.5000     0 0 20
N00257           5.9275       1.5000     0 0 20
N01371           12.4338      1.5000     0 0 20
N00985           17.8583      1.5000     0 0 20
N02262           19.6846      1.5000     0 0 20
N02382           4.2859       1.5000     0 0 20
N00433           24.3253      1.5000     0 0 20
N01313           19.3883      3.5214     0 0 20
N01904           15.2690      1.5000     0 0 20
N00166           19.7998      1.5000     0 0 20
N00458           22.0458      2.4033     0 0 20
N00639           2.4567       1.5000     0 0 20
N00686           13.3734      1.5000     0 0 20
N01214           25.6873      1.5000     0 0 20
N02775           24.8901      1.5000     0 0 20
N01748           4.1165       1.5000     0 0 20
N02315           4.5577       1.5000     0 0 20
N02173           5.4406       1.5000     0 0 20
N01525           5.7687       1.5000     0 0 20
N00271           6.0439       1.5000     0 0 20
N02688           17.9077      1.5000     0 0 20
N01974           22.7812      1.5000     0 0 20
N01513           19.7022      1.5000     0 0 20
N01929           7.0857       1.5000     0 0 20
N00875           6.6533       2.1149     0 0 20
N01334           5.8472       1.5000     0 0 20
N01730           4.5477       1.5424     0 0 20
N01682           5.5408       1.5000     0 0 20
N01914           9.2759       1.5000     0 0 20
N01428           8.9085       1.5143     0 0 20
N02564           5.6829       1.5000     0 0 20
N00674           4.9915       1.5000     0 0 20
N01154           45.5636      1.5000     0 0 20
N02490           4.3539       1.5000     0 0 20
N01009           19.5042      1.5000     0 0 20
N00552           27.0523      1.5000     0 0 20
N00873           2.7370       1.5000     0 0 20
N02408           21.8852      1.5000     0 0 20
N01549           3.5658       1.6725     0 0 20
N02539           4.6076       1.5000     0 0 20
N00400           3.4851       1.5000     0 0 20
N02090           2.8910       1.6273     0 0 20
N02663           10.2503      1.6058     0 0 20
N00654           2.6482       1.8617     0 0 20
N01794           8.2741       1.5000     0 0 20
N01550           10.8955      1.5000     0 0 20
N01062           20.3471      1.5000     0 0 20
N00315           46.1689      1.5000     0 0 20
N00187           6.3129       1.5000     0 0 20
N00219           5.7449       1.5000     0 0 20
N00189           3.6266       1.5000     0 0 20
N00307           5.5591       1.5000     0 0 20
N01508           13.2982      1.5000     0 0 20
N00188           7.7273       1.5000     0 0 20
N01084           4.7774       1.5000     0 0 20
N00670           36.2838      1.5000     0 0 20
N00591           19.7075      1.5000     0 0 20
N00428           13.4567      1.5000     0 0 20
N01737           5.8111       1.5000     0 0 20
N00363           6.9208       1.5000     0 0 20
N02622           3.6266       1.5000     0 0 20
N02116           7.9129       1.5000     0 0 20
N00137           3.5738       1.5000     0 0 20
N01949           5.5690       1.5000     0 0 20
N02628           15.6960      1.5000     0 0 20
N02662           11.3908      1.5000     0 0 20
N00053           19.5486      1.5000     0 0 20
N01729           5.0123       1.5464     0 0 20
N00057           10.4677      1.5000     0 0 20
N00480           16.0960      1.5000     0 0 20
N00555           17.0930      1.5000     0 0 20
N00259           4.5546       1.5000     0 0 20
N01047           26.3541      1.5000     0 0 20
N00118           14.5215      1.5000     0 0 20
N02721           18.8974      1.7562     0 0 20
N01324           16.1167      1.5000     0 0 20
N02079           14.4244      1.5000     0 0 20
N01594           21.3812      1.5000     0 0 20
N00157           21.2351      3.2562     0 0 20
N01591           44.4554      1.5000     0 0 20
N00333           5.9880       1.5555     0 0 20
N00204           9.3815       1.5000     0 0 20
N01823           17.9222      3.4141     0 0 20
N00802           7.2270       1.5000     0 0 20
N02555           26.5026      1.5000     0 0 20
N02587           19.3272      1.5000     0 0 20
N01144           28.8053      1.5000     0 0 20
N00852           21.2191      1.5000     0 0 20
N01326           17.6658      1.5000     0 0 20
N00096           3.8499       3.1094     0 0 20
N02374           4.3626       1.5000     0 0 20
N01064           45.0120      1.5000     0 0 20
N02734           19.4079      1.5000     0 0 20
N00350           5.6429       1.5400     0 0 20
N01395           3.8815       1.6186     0 0 20
N01565           22.3572      1.5000     0 0 20
N01954           3.6989       1.5000     0 0 20
N01743           4.9968       1.5000     0 0 20
N01042           16.8230      1.5000     0 0 20
N02765           4.5788       1.7750     0 0 20
N02142           6.3944       1.5000     0 0 20
N00551           20.8167      1.5000     0 0 20
N00024           41.3582      1.9765     0 0 20
N00792           3.6266       1.5000     0 0 20
N00430           25.6104      1.5000     0 0 20
N01736           9.3291       2.5521     0 0 20
N02829           26.9985      1.5000     0 0 20
N01689           5.0101       1.5000     0 0 20
N00301           5.4961       1.6064     0 0 20
N02010           16.2603      1.5000     0 0 20
N00115           7.2349       1.5000     0 0 20
N01056           28.8575      1.5000     0 0 20
N00676           3.8199       1.5000     0 0 20
N01086           4.5991       1.5000     0 0 20
N01485           3.6266       1.5000     0 0 20
N00334           5.6622       1.5000     0 0 20
N00075           20.7082      1.5000     0 0 20
N00901           2.7250       1.8089     0 0 20
N01007           18.0592      1.5224     0 0 20
N01066           5.3254       1.5000     0 0 20
N02425           21.5499      1.5000     0 0 20
N02176           3.7775       1.5000     0 0 20
N00005           7.0032       1.5000     0 0 20
N02563           27.1387      1.5000     0 0 20
N01277           27.0777      1.5000     0 0 20
N01712           4.9848       1.5000     0 0 20
N01563           19.8545      1.5000     0 0 20
N01162           2.5740       1.5000     0 0 20
N01683           4.8414       1.5000     0 0 20
N02612           8.8728       1.5000     0 0 20
N00878           3.6417       1.5966     0 0 20
N02300           28.9813      1.5000     0 0 20
N02131           5.3774       1.8774     0 0 20
N02503           20.4156      1.5000     0 0 20
N01918           15.6657      1.5000     0 0 20
N01363           41.1779      1.5000     0 0 20
N00818           10.1914      1.5000     0 0 20
N00629           2.6782       1.5000     0 0 20
N01844           9.9124       1.5000     0 0 20
N01942           4.3713       1.5000     0 0 20
N00255           6.5468       1.5000     0 0 20
N00951           40.0565      1.7277     0 0 20
N00602           35.3389      1.5000     0 0 20
N01495           4.7386       1.5000     0 0 20
N00949           46.0918      1.5000     0 0 20
N01807           8.8386       1.5000     0 0 20
N01637           2.2774       1.5948     0 0 20
N00184           3.7862       1.5000     0 0 20
N02120           10.5822      1.5000     0 0 20
N01474           3.4684       1.5000     0 0 20
N01458           21.6148      1.5000     0 0 20
N01241           17.3960      1.5000     0 0 20
N02648           10.9643      1.5000     0 0 20
N01711           5.3291       1.7267     0 0 20
N02441           5.2470       1.7654     0 0 20
N01931           6.5827       1.5000     0 0 20
N01856           5.9748       1.5000     0 0 20
N00136           4.8951       1.5000     0 0 20
N01733           5.1796       1.5000     0 0 20
N01728           4.5901       1.5000     0 0 20
N02842           2.3887       1.6520     0 0 20
N01412           11.9105      1.5000     0 0 20
N00848           36.2970      1.5000     0 0 20
N02685           16.8447      1.5000     0 0 20
N01876           4.9849       1.5141     0 0 20
N00625           6.5843       1.5000     0 0 20
N01524           18.6422      1.5094     0 0 20
N00274           8.0903       1.5000     0 0 20
N00809           9.9173       1.5000     0 0 20
N01907           14.0546      1.5037     0 0 20
N01040           31.4137      1.5000     0 0 20
N00927           34.5780      1.5000     0 0 20
N01775           5.0038       1.5000     0 0 20
N01482           3.6266       1.5000     0 0 20
N01466           3.7452       1.5000     0 0 20
N01026           7.8044       4.7400     0 0 20
N00181           3.6266       1.5000     0 0 20
N01766           4.5901       1.5000     0 0 20
N01705           4.9848       1.5000     0 0 20
N02163           11.4623      1.5000     0 0 20
N01634           3.0862       1.5000     0 0 20
N02284           21.8282      1.5000     0 0 20
N01941           4.3640       1.5000     0 0 20
N01943           6.0596       1.5000     0 0 20
N02146           7.9275       1.5000     0 0 20
N02655           8.8178       2.8841     0 0 20
N01290           3.7383       1.5000     0 0 20
N00213           2.8938       1.5000     0 0 20
N01865           6.7232       2.5736     0 0 20
N00294           7.3106       1.5000     0 0 20
N00427           13.7000      1.5000     0 0 20
N02660           10.5899      1.5000     0 0 20
N01922           9.0242       1.5000     0 0 20
N01696           6.2315       1.5000     0 0 20
N01311           18.2786      1.5000     0 0 20
N00994           16.5646      1.5000     0 0 20
N01891           14.7114      1.8510     0 0 20
N02309           36.7221      1.5000     0 0 20
N02644           11.9097      1.5000     0 0 20
N00332           6.8782       1.5000     0 0 20
N00916           12.4510      1.5000     0 0 20
N01346           3.5305       1.5000     0 0 20
N00813           9.7392       1.5000     0 0 20
N00791           44.5663      1.5000     0 0 20
N01958           23.5403      1.5000     0 0 20
N01783           5.1222       1.5000     0 0 20
N01443           8.0075       1.5000     0 0 20
N01015           14.3279      1.5000     0 0 20
N01124           15.8754      1.5000     0 0 20
N01305           29.5431      1.5000     0 0 20
N02086           2.9960       1.5939     0 0 20
N00045           14.5223      1.5000     0 0 20
N01387           3.4399       1.5018     0 0 20
N00359           4.4485       1.5000     0 0 20
N00125           2.9775       1.7434     0 0 20
N01288           10.7755      2.2589     0 0 20
N02101           36.1327      1.5000     0 0 20
N00869           4.3499       1.5000     0 0 20
N02181           3.0197       1.5500     0 0 20
N01944           4.0934       1.5000     0 0 20
N00237           1.5922       1.5000     0 0 20
N02064           47.7116      1.5000     0 0 20
N00997           21.8821      1.5000     0 0 20
N00033           22.4078      1.5000     0 0 20
N01440           7.1261       2.0670     0 0 20
N00260           5.7492       1.5000     0 0 20
N02406           18.2764      1.5000     0 0 20
N00494           15.8322      1.6891     0 0 20
N01987           13.6107      1.5000     0 0 20
N00699           46.5373      1.5000     0 0 20
N02518           4.9988       1.5000     0 0 20
N00122           4.1348       1.6901     0 0 20
N01010           19.8767      3.3670     0 0 20
N01926           8.6538       1.8304     0 0 20
N01833           6.3942       1.7085     0 0 20
N02720           7.0352       1.5000     0 0 20
N00226           13.8193      1.5000     0 0 20
N00631           3.1457       1.5000     0 0 20
N00432           18.8773      1.5000     0 0 20
N02619           6.8714       1.5000     0 0 20
N01538           4.1601       2.1745     0 0 20
N02428           4.6101       1.5000     0 0 20
N00780           16.0291      1.5000     0 0 20
N01757           5.0338       1.5000     0 0 20
N00603           36.1497      1.5000     0 0 20
N01351           4.0547       1.5000     0 0 20
N01587           32.5941      1.5000     0 0 20
N00918           33.2496      1.5000     0 0 20
N00724           13.6367      1.5000     0 0 20
N01762           4.0157       1.5000     0 0 20
N01708           5.4304       1.8748     0 0 20
N01377           8.2073       1.5000     0 0 20
N02841           19.7188      1.5000     0 0 20
N01687           7.9104       1.5000     0 0 20
N01476           4.2896       1.5000     0 0 20
N01520           3.9793       1.5000     0 0 20
N00708           16.2137      1.5000     0 0 20
N01894           18.6335      4.9630     0 0 20
N02179           3.0697       1.5000     0 0 20
N00626           11.5229      1.7459     0 0 20
N02536           38.8288      1.5000     0 0 20
N00826           14.4862      1.5000     0 0 20
N01089           38.1711      1.5000     0 0 20
N02523           26.5918      1.5000     0 0 20
N01461           9.0266       1.7503     0 0 20
N01612           12.9918      1.5000     0 0 20
N02526           48.3439      1.5000     0 0 20
N01176           16.5855      1.5000     0 0 20
N02369           3.1754       1.5543     0 0 20
N01867           6.6312       1.5000     0 0 20
N00835           6.8794       1.5000     0 0 20
N00457           16.5887      1.5000     0 0 20
N02304           43.5462      1.5000     0 0 20
N00574           15.9312      1.5000     0 0 20
N00988           17.0074      1.5000     0 0 20
N01611           3.2767       1.5000     0 0 20
N01410           10.4515      1.5000     0 0 20
N02517           6.0933       2.1914     0 0 20
N01118           7.2562       1.5000     0 0 20
N01247           2.8001       1.5000     0 0 20
N01280           22.7314      1.5000     0 0 20
N00174           3.6266       1.5000     0 0 20
N02801           6.1226       1.5000     0 0 20
N00834           2.7364       1.5000     0 0 20
N02410           19.7430      1.5000     0 0 20
N01632           3.5399       1.5000     0 0 20
N02004           9.9985       2.8062     0 0 20
N01746           5.1718       1.5000     0 0 20
N00402           4.6719       1.5000     0 0 20
N02741           18.7043      1.5000     0 0 20
N02281           23.7010      1.5000     0 0 20
N00340           3.7161       2.0022     0 0 20
N01100           3.6426       1.5000     0 0 20
N02787           7.6223       1.5000     0 0 20
N01814           9.2221       1.5000     0 0 20
N00891           3.9780       1.5000     0 0 20
N02469           10.0841      1.5000     0 0 20
N02494           2.7698       2.1681     0 0 20
N01389           3.2209       1.5000     0 0 20
N02130           5.5374       1.5000     0 0 20
N01093           22.4962      1.5000     0 0 20
N02312           8.4388       1.5000     0 0 20
N01971           7.2796       1.5000     0 0 20
N01141           21.5732      1.5000     0 0 20
N01050           28.4482      1.5000     0 0 20
N00134           5.0719       1.5000     0 0 20
N00538           13.9076      1.5000     0 0 20
N02069           21.9799      1.5000     0 0 20
N00565           14.5176      1.5000     0 0 20
N01649           7.6945       1.5000     0 0 20
N00693           7.1392       2.5818     0 0 20
N02677           10.1341      1.5000     0 0 20
N00592           15.7309      1.5000     0 0 20
N01293           5.1461       1.5000     0 0 20
N00703           16.9944      1.5000     0 0 20
N01768           5.1860       1.5000     0 0 20
N01057           26.5241      1.5000     0 0 20
N00054           15.6768      1.5000     0 0 20
N00647           2.5337       1.5000     0 0 20
N01074           14.6780      1.5000     0 0 20
N02100           31.4643      1.5000     0 0 20
N02115           7.4435       5.1142     0 0 20
N00900           5.2134       2.1054     0 0 20
N02103           29.5837      1.5000     0 0 20
N01068           17.0340      1.5000     0 0 20
N00865           21.0928      1.5000     0 0 20
N02719           6.6177       1.5000     0 0 20
N00373           2.7588       1.6548     0 0 20
N00646           2.3721       1.5000     0 0 20
N01294           4.7652       1.5000     0 0 20
N01129           3.7383       1.5000     0 0 20
N02418           37.7434      1.5000     0 0 20
N00328           4.0018       1.6479     0 0 20
N00358           4.9067       1.5000     0 0 20
N02777           17.0855      1.5000     0 0 20
N02463           12.7065      1.5000     0 0 20
N00218           6.5990       1.5000     0 0 20
N00959           6.9693       1.5000     0 0 20
N02465           14.0583      1.5379     0 0 20
N00376           5.1165       1.5000     0 0 20
N02168           11.4623      1.5000     0 0 20
N00499           15.6873      1.5000     0 0 20
N00003           7.1459       1.5000     0 0 20
N00302           5.5408       1.5000     0 0 20
N02646           46.0646      1.5000     0 0 20
N01769           4.8902       1.5309     0 0 20
N00390           5.0012       4.8302     0 0 20
N00303           6.7755       1.5000     0 0 20
N02413           45.5136      1.8550     0 0 20
N00280           5.5208       2.0067     0 0 20
N01033           12.0627      1.5000     0 0 20
N01703           5.0025       1.5000     0 0 20
N01386           3.0697       1.5000     0 0 20
N01329           14.3849      1.5000     0 0 20
N00234           3.0572       1.5000     0 0 20
N01270           4.0790       1.5000     0 0 20
N02119           17.7229      1.5000     0 0 20
N00811           9.8546       1.5000     0 0 20
N00889           3.6583       1.6781     0 0 20
N01166           22.1546      1.5000     0 0 20
N01101           3.5129       1.5000     0 0 20
N01969           18.6774      1.5000     0 0 20
N01529           23.4642      1.5000     0 0 20
N00652           2.7043       1.5268     0 0 20
N01977           17.6789      1.5000     0 0 20
N01992           13.3494      1.5000     0 0 20
N02512           21.4692      1.5000     0 0 20
N00365           4.3981       2.0388     0 0 20
N00822           4.8033       1.5361     0 0 20
N02017           12.9487      1.6985     0 0 20
N00905           3.7260       1.5000     0 0 20
N02242           20.5669      1.5000     0 0 20
N02157           10.6624      1.5000     0 0 20
N00154           8.0961       1.5000     0 0 20
N01793           8.2523       1.5000     0 0 20
N02174           3.2209       1.5000     0 0 20
N01832           9.3274       2.1099     0 0 20
N02645           12.3715      1.5000     0 0 20
N00701           22.2462      1.5000     0 0 20
N01764           4.4800       1.5000     0 0 20
N00196           2.7975       1.5000     0 0 20
N01855           6.7426       1.5000     0 0 20
N01902           14.1241      1.5000     0 0 20
N01948           5.3855       1.5000     0 0 20
N00264           5.3085       1.5000     0 0 20
N01543           4.2767       1.5000     0 0 20
N01972           23.4323      1.5000     0 0 20
N01827           7.1561       2.6312     0 0 20
N02078           14.1460      1.5000     0 0 20
N02486           4.0044       1.5000     0 0 20
N00088           2.9892       1.5000     0 0 20
N02091           31.0684      1.5000     0 0 20
N02843           19.2022      1.9028     0 0 20
N01915           14.5099      1.5000     0 0 20
N02025           19.2020      1.6331     0 0 20
N01939           20.2444      1.5000     0 0 20
N01859           8.5155       1.5000     0 0 20
N00612           25.4285      1.5000     0 0 20
N01647           7.8604       1.5000     0 0 20
N01016           15.1645      1.5000     0 0 20
N02159           7.4100       1.5000     0 0 20
N02313           9.2115       1.5000     0 0 20
N02643           11.6158      1.5000     0 0 20
N00269           4.5261       1.5000     0 0 20
N00289           5.9668       1.5000     0 0 20
N00434           19.0372      2.3012     0 0 20
N00941           4.9695       1.5000     0 0 20
N00711           42.3123      1.5000     0 0 20
N01379           11.0971      1.5000     0 0 20
N01562           20.9831      1.5000     0 0 20
N02529           29.6456      1.5000     0 0 20
N00615           26.7597      1.7042     0 0 20
N01503           28.5922      1.5000     0 0 20
N01962           23.0149      1.5000     0 0 20
N00205           6.3542       1.5000     0 0 20
N02095           26.6359      1.6782     0 0 20
N02713           5.2917       1.5000     0 0 20
N00422           3.0264       1.5000     0 0 20
N02271           21.9132      1.5000     0 0 20
N01615           2.4287       1.6489     0 0 20
N00158           10.0004      1.5000     0 0 20
N01391           2.9190       1.5000     0 0 20
N02507           22.1996      1.5000     0 0 20
N01580           15.6003      1.5000     0 0 20
N01620           4.6189       1.5000     0 0 20
N01825           12.7084      1.5419     0 0 20
N01791           5.7255       1.5000     0 0 20
N01625           3.3451       1.5000     0 0 20
N01810           8.7107       1.5000     0 0 20
N01883           12.3739      1.5000     0 0 20
N01020           27.5087      1.5000     0 0 20
N02654           7.6059       2.5389     0 0 20
N01447           10.3606      1.5000     0 0 20
N01995           10.3606      1.5000     0 0 20
N01618           3.1802       1.5000     0 0 20
N01715           4.9548       1.5300     0 0 20
N00993           18.2269      1.5000     0 0 20
N00496           15.2882      1.6264     0 0 20
N00505           15.9346      1.5000     0 0 20
N02290           31.8131      1.5000     0 0 20
N02692           21.4446      1.5000     0 0 20
N00150           4.2321       1.5000     0 0 20
N00586           21.8949      1.5000     0 0 20
N01067           5.5528       1.5000     0 0 20
N00928           35.7055      1.5000     0 0 20
N01398           14.4778      1.5000     0 0 20
N02429           8.6393       1.5000     0 0 20
N01044           42.6833      4.6260     0 0 20
N00123           3.7502       1.6860     0 0 20
N02585           18.7232      1.5000     0 0 20
N01527           22.5285      1.5000     0 0 20
N02247           26.1738      1.5000     0 0 20
N00014           5.1799       1.5000     0 0 20
N02549           25.7379      2.3981     0 0 20
N00787           2.6870       1.6135     0 0 20
N00016           4.5282       1.5000     0 0 20
N01102           3.0183       1.5000     0 0 20
N02620           3.8258       1.5000     0 0 20
N02511           22.5549      1.5000     0 0 20
N02830           22.0998      1.5000     0 0 20
N00678           7.1260       1.5000     0 0 20
N01332           47.6864      1.5000     0 0 20
N00500           15.1291      1.6307     0 0 20
N00989           16.9366      1.5854     0 0 20
N00361           8.7040       1.5000     0 0 20
N01467           3.8008       1.5000     0 0 20
N02625           11.9339      1.5000     0 0 20
N01338           6.0300       1.5000     0 0 20
N01265           15.4018      1.5000     0 0 20
N02682           19.6649      1.5000     0 0 20
N01505           17.2358      1.5000     0 0 20
N00316           31.5544      1.5000     0 0 20
N00808           11.0469      1.5000     0 0 20
N00170           6.5517       1.5000     0 0 20
N00690           23.8884      1.5000     0 0 20
N02132           5.5124       1.5000     0 0 20
N01804           10.3465      1.5379     0 0 20
N00814           4.6221       1.5000     0 0 20
N01806           8.5822       1.5000     0 0 20
N02616           3.1937       1.5000     0 0 20
N00671           37.4849      1.5000     0 0 20
N01451           4.8704       1.5000     0 0 20
N01336           47.2312      1.5000     0 0 20
N01741           4.8826       2.0617     0 0 20
N02818           4.0890       1.6223     0 0 20
N01653           3.6266       1.5000     0 0 20
N00567           21.4122      1.5000     0 0 20
N01744           3.8040       1.5000     0 0 20
N00441           21.6903      3.0391     0 0 20
N01462           10.4553      1.5000     0 0 20
N00816           4.1989       1.5000     0 0 20
N00621           3.9716       1.5000     0 0 20
N00389           4.1930       1.5000     0 0 20
N00710           21.2564      1.5000     0 0 20
N00087           3.1638       1.5000     0 0 20
N02749           44.8969      1.5000     0 0 20
N01409           13.5901      1.5000     0 0 20
N01504           30.0684      1.5000     0 0 20
N01973           22.8816      1.5000     0 0 20
N02034           19.8086      1.5000     0 0 20
N01002           24.1336      1.5000     0 0 20
N00380           3.4639       1.5000     0 0 20
N00672           39.5203      1.5000     0 0 20
N00770           15.7026      1.9163     0 0 20
N01479           5.3853       1.5000     0 0 20
N01614           2.5192       1.5000     0 0 20
N00637           2.8918       1.5000     0 0 20
N02672           11.4320      1.5212     0 0 20
N02776           28.6648      1.5000     0 0 20
N01963           9.9880       1.5000     0 0 20
N02219           28.6652      1.5000     0 0 20
N00296           8.9732       1.5000     0 0 20
N02129           5.4823       1.5000     0 0 20
N00106           3.6989       1.5000     0 0 20
N02708           4.3072       1.5000     0 0 20
N00083           3.2996       1.5000     0 0 20
N01454           3.1248       1.5000     0 0 20
N02253           20.0621      1.7142     0 0 20
N01548           3.7383       1.5000     0 0 20
N02345           3.6942       1.5000     0 0 20
N00979           4.8864       2.3007     0 0 20
N01799           8.8329       1.5000     0 0 20
N02767           4.0861       1.5000     0 0 20
N02768           5.0037       1.5000     0 0 20
N02000           9.9687       1.8269     0 0 20
N02059           17.3749      1.5000     0 0 20
N00854           13.0201      1.5000     0 0 20
N02414           26.7529      1.5000     0 0 20
N01684           4.7509       2.5483     0 0 20
N00112           4.5495       1.5000     0 0 20
N02674           11.4820      1.5000     0 0 20
N00677           7.1260       1.5000     0 0 20
N02417           37.0695      1.5000     0 0 20
N01493           4.7980       1.8318     0 0 20
N02076           13.0473      1.5000     0 0 20
N00537           11.1914      2.1216     0 0 20
N00512           16.2001      1.5000     0 0 20
N02752           47.9604      1.5000     0 0 20
N00495           15.8118      1.5000     0 0 20
N02805           13.9249      1.5000     0 0 20
N00644           2.3721       1.5000     0 0 20
N02793           18.3036      1.5000     0 0 20
N01541           4.8965       1.5512     0 0 20
N01431           7.8164       1.5000     0 0 20
N01452           4.5194       1.5707     0 0 20
N01572           4.4435       2.3512     0 0 20
N02556           29.1479      1.5000     0 0 20
N00323           9.8053       1.5000     0 0 20
N01739           4.5901       1.5000     0 0 20
N00130           2.5141       1.5000     0 0 20
N02279           21.0277      1.5000     0 0 20
N01666           10.6955      1.7000     0 0 20
N00068           7.0084       1.5000     0 0 20
N00012           8.1561       1.5000     0 0 20
N00138           3.9384       1.5000     0 0 20
N01484           10.6175      1.5000     0 0 20
N02015           14.7622      1.5000     0 0 20
N00246           7.3349       1.5000     0 0 20
N00240           4.7414       1.5361     0 0 20
N00320           20.7396      1.5000     0 0 20
N00372           2.2884       2.0041     0 0 20
N01396           6.0710       2.4176     0 0 20
N02778           17.7503      1.5000     0 0 20
N00235           2.7711       1.5000     0 0 20
N02311           3.7562       1.5000     0 0 20
N00233           2.6982       1.5000     0 0 20
N00413           19.5920      1.5000     0 0 20
N02112           10.5455      1.8500     0 0 20
N02182           3.4846       1.5000     0 0 20
N01655           5.4494       1.5000     0 0 20
N02114           10.8555      1.5400     0 0 20
N01716           5.0324       2.2363     0 0 20
N01459           17.2601      1.5000     0 0 20
N01456           3.0010       1.5173     0 0 20
N00831           7.6819       1.5000     0 0 20
N01534           21.4161      1.5000     0 0 20
N00859           20.5520      1.5000     0 0 20
N02800           5.2117       1.5800     0 0 20
N01717           6.0678       1.5000     0 0 20
N01158           42.5247      6.5799     0 0 20
N02351           2.9531       1.8406     0 0 20
N00321           12.8307      1.5000     0 0 20
N00375           5.6772       1.5000     0 0 20
N01809           8.2458       1.6338     0 0 20
N00023           46.1590      1.5000     0 0 20
N02216           43.4992      6.0398     0 0 20
N00488           16.3194      1.5000     0 0 20
N02143           5.1481       1.5000     0 0 20
N02267           21.8390      1.5743     0 0 20
N00775           31.1045      1.5000     0 0 20
N01704           5.7197       1.5000     0 0 20
N02412           42.1554      1.5000     0 0 20
N00001           8.0615       1.5000     0 0 20
N02735           17.6317      1.5000     0 0 20
N01206           4.6412       1.5000     0 0 20
N01819           10.8960      1.5000     0 0 20
N02461           13.0201      1.5000     0 0 20
N01383           2.6917       1.5403     0 0 20
N00525           19.8074      1.5000     0 0 20
N00004           4.2321       1.5000     0 0 20
N00031           19.2608      1.5000     0 0 20
N01330           19.4550      1.5000     0 0 20
N02751           44.6107      1.5000     0 0 20
N00199           6.3730       1.5000     0 0 20
N02527           27.7157      1.5000     0 0 20
N00857           15.2849      1.5000     0 0 20
N00183           6.8751       1.5000     0 0 20
N01714           4.9848       1.5000     0 0 20
N01581           15.5390      1.5000     0 0 20
N02008           12.1856      1.5000     0 0 20
N02436           22.7956      1.5000     0 0 20
N01582           16.0310      1.5000     0 0 20
N02695           42.3677      1.5000     0 0 20
N00286           5.6006       1.5000     0 0 20
N02171           14.3511      1.5000     0 0 20
N01289           10.8955      1.5000     0 0 20
N00954           6.0150       1.5526     0 0 20
N00590           21.1039      1.5000     0 0 20
N01029           4.1277       1.7106     0 0 20
N02493           3.7449       1.5000     0 0 20
N02814           5.0649       1.5000     0 0 20
N00185           4.6783       1.5000     0 0 20
N01901           9.9564       1.7701     0 0 20
N00886           8.2942       2.1764     0 0 20
N02725           11.7816      1.5000     0 0 20
N01300           5.7924       1.5000     0 0 20
N01128           3.7159       1.5224     0 0 20
N01961           25.8604      1.5000     0 0 20
N01698           6.0266       1.7169     0 0 20
N01811           9.2428       1.5000     0 0 20
N00198           5.6477       1.5000     0 0 20
N01355           5.0700       1.5000     0 0 20
N02603           3.7262       1.5300     0 0 20
N01940           4.4668       1.5000     0 0 20
N02356           4.0587       1.5000     0 0 20
N00876           6.5415       1.8618     0 0 20
N01297           4.7336       2.5129     0 0 20
N02550           43.4664      1.5000     0 0 20
N01654           4.8262       1.5000     0 0 20
N01448           16.5418      1.5000     0 0 20
N01408           14.8949      1.6347     0 0 20
N02416           38.2438      1.5000     0 0 20
N01521           8.4566       1.5000     0 0 20
N00903           3.3695       1.6175     0 0 20
N01091           18.8451      1.5000     0 0 20
N02314           4.5024       1.8986     0 0 20
N02139           7.5887       1.5000     0 0 20
N02506           46.0760      1.5000     0 0 20
N01577           4.5746       1.5000     0 0 20
N01388           3.2209       1.5000     0 0 20
N02009           10.8738      1.5000     0 0 20
N01434           12.5218      1.5000     0 0 20
N00630           2.6782       1.5000     0 0 20
N02389           5.5229       1.5000     0 0 20
N00907           3.1435       1.5000     0 0 20
N00444           21.7703      1.5000     0 0 20
N01994           9.0344       1.6399     0 0 20
N00377           4.6994       1.5000     0 0 20
N02269           45.1047      1.5000     0 0 20
N01595           21.8052      1.5000     0 0 20
N01250           47.7971      1.6700     0 0 20
N01921           21.6586      1.5000     0 0 20
N01488           3.2577       1.5608     0 0 20
N01390           3.1878       1.5332     0 0 20
N02156           11.2362      1.5000     0 0 20
N01702           5.0217       1.5000     0 0 20
N00589           18.8926      1.5000     0 0 20
N01464           6.7001       1.5000     0 0 20
N01805           8.8935       1.5000     0 0 20
N01437           9.1132       1.5000     0 0 20
N02742           18.2990      1.5000     0 0 20
N01701           5.5579       1.5000     0 0 20
N01295           6.4727       1.5000     0 0 20
N02444           3.6946       1.8077     0 0 20
N01601           47.2160      1.5000     0 0 20
N00247           4.4944       1.5000     0 0 20
N00089           2.6782       1.5000     0 0 20
N02447           19.3625      1.5039     0 0 20
N01001           21.1754      1.5000     0 0 20
N00675           5.4710       1.5000     0 0 20
N00515           18.8797      1.5000     0 0 20
N01782           4.8787       1.5424     0 0 20
N00931           43.2378      1.5000     0 0 20
N01850           9.5156       1.5000     0 0 20
N01956           7.1179       1.5000     0 0 20
N01700           5.4430       1.5000     0 0 20
N00784           39.2533      1.5000     0 0 20
N00067           7.8493       1.5000     0 0 20
N01967           7.1645       1.5000     0 0 20
N01554           7.5600       1.8119     0 0 20
N00392           6.3750       1.5000     0 0 20
N00482           16.1925      1.5000     0 0 20
N02650           8.8538       1.5000     0 0 20
N02821           14.6787      1.5000     0 0 20
N02595           25.0670      1.5000     0 0 20
N00348           4.2353       1.5000     0 0 20
N00423           13.3010      1.5000     0 0 20
N01071           10.1151      1.5000     0 0 20
N00071           3.7461       1.5000     0 0 20
N02825           9.9446       2.4414     0 0 20
N01140           20.6671      1.5000     0 0 20
N01896           9.6760       1.5000     0 0 20
N00186           3.7965       1.5000     0 0 20
N00642           2.2897       1.6296     0 0 20
N02594           17.8076      1.5000     0 0 20
N02641           8.4715       1.5000     0 0 20
N01282           40.6658      1.5000     0 0 20
N00745           12.8988      1.5000     0 0 20
N02816           5.0483       1.5000     0 0 20
N01393           8.1648       1.5000     0 0 20
N01475           2.7335       1.5640     0 0 20
N02534           31.6543      1.5000     0 0 20
N01380           11.4004      1.5573     0 0 20
N00167           4.1315       1.5000     0 0 20
N00922           13.1820      1.5000     0 0 20
N00151           4.4235       1.5000     0 0 20
N01285           24.9118      3.9263     0 0 20
N00325           4.8060       1.5000     0 0 20
N01801           7.4805       1.5000     0 0 20
N00721           32.9920      1.5000     0 0 20
N01621           3.9346       1.5000     0 0 20
N02794           10.8955      1.5000     0 0 20
N00532           17.1676      1.5000     0 0 20
N02553           47.1844      1.5000     0 0 20
N02651           11.4851      1.5000     0 0 20
N01779           5.0892       1.5000     0 0 20
N01947           5.0548       1.5000     0 0 20
N01968           7.8552       2.2834     0 0 20
N00479           15.2598      1.5000     0 0 20
N02745           2.8510       1.5000     0 0 20
N01629           2.7975       1.5000     0 0 20
N01497           3.7813       1.5000     0 0 20
N02293           30.4791      1.5000     0 0 20
N00740           17.3722      1.5000     0 0 20
N02244           24.9456      1.5000     0 0 20
N00367           8.5174       1.5000     0 0 20
N02354           3.0935       1.5500     0 0 20
N00041           6.8574       1.5000     0 0 20
N01665           12.0743      1.5000     0 0 20
N00356           5.6627       1.5000     0 0 20
N00056           13.4289      2.4826     0 0 20
N02715           5.2917       1.5000     0 0 20
N01657           5.3871       1.5624     0 0 20
N02275           19.7055      1.5000     0 0 20
N01598           21.5106      1.5000     0 0 20
N02449           14.1622      1.5000     0 0 20
N02781           17.6283      1.5000     0 0 20
N00553           30.0059      1.5000     0 0 20
N02118           7.5651       1.5000     0 0 20
N00585           21.6364      1.5000     0 0 20
N02826           25.1196      1.5000     0 0 20
N00244           5.2033       1.5000     0 0 20
N02802           3.7912       1.5707     0 0 20
N01887           8.3042       1.5000     0 0 20
N01098           3.5932       1.5000     0 0 20
N02499           8.2369       1.5000     0 0 20
N01126           3.7373       1.5000     0 0 20
N02637           14.4042      1.5000     0 0 20
N00141           3.0198       1.5000     0 0 20
N01348           3.5966       1.8377     0 0 20
N01928           3.5317       1.6266     0 0 20
N00155           21.1851      2.3085     0 0 20
N02147           5.4494       1.5000     0 0 20
N00683           15.0657      1.5000     0 0 20
N01870           6.0197       1.5000     0 0 20
N02192           2.7636       1.5801     0 0 20
N01463           6.6220       3.7119     0 0 20
N02491           3.0833       1.5000     0 0 20
N00439           24.7024      1.5000     0 0 20
N02472           5.4540       1.5283     0 0 20
N00604           28.0107      1.5000     0 0 20
N02533           31.7966      1.5000     0 0 20
N00669           31.7747      1.5000     0 0 20
N02714           4.1601       1.5000     0 0 20
N00278           7.5107       1.7600     0 0 20
N02177           3.3615       1.5000     0 0 20
N01213           33.0938      1.5000     0 0 20
N01003           27.7832      1.5000     0 0 20
N01103           2.9410       1.5773     0 0 20
N02067           24.1392      1.5000     0 0 20
N01039           5.5408       1.5000     0 0 20
N01742           4.9732       1.5000     0 0 20
N01831           9.4074       1.5000     0 0 20
N01328           14.8696      1.5000     0 0 20
N01051           40.6380      1.5000     0 0 20
N01938           17.2294      1.5000     0 0 20
N00819           9.8527       1.5000     0 0 20
N02705           4.0743       1.5000     0 0 20
N01699           4.6539       1.5000     0 0 20
N00483           16.7315      1.5000     0 0 20
N02495           1.4739       1.6565     0 0 20
N02668           8.1792       1.5000     0 0 20
N02723           16.6553      1.5000     0 0 20
N01358           9.6923       1.5000     0 0 20
N00415           11.4395      1.5000     0 0 20
N02467           9.9946       1.5000     0 0 20
N00349           7.5150       1.5000     0 0 20
N00085           3.0686       1.5000     0 0 20
N02700           5.2917       1.5000     0 0 20
N01492           4.4052       1.5000     0 0 20
N02710           10.8955      1.5000     0 0 20
N01996           8.0392       1.5000     0 0 20
N02558           6.1288       1.5000     0 0 20
N00025           17.9116      1.5000     0 0 20
N01898           15.8003      1.5000     0 0 20
N02513           15.9346      1.5000     0 0 20
N00411           19.3613      1.5000     0 0 20
N02475           6.4418       1.5000     0 0 20
N00489           16.5328      1.5000     0 0 20
N00371           3.5565       1.5000     0 0 20
N02239           22.4541      1.5000     0 0 20
N01863           6.8132       1.5000     0 0 20
N00485           15.5774      1.5000     0 0 20
N01502           5.7777       1.5000     0 0 20
N01510           18.8077      2.3625     0 0 20
N01055           34.7514      1.5000     0 0 20
N00396           5.6882       1.5000     0 0 20
N02252           22.9174      1.5000     0 0 20
N00324           9.2071       1.5000     0 0 20
N01622           2.9466       1.5000     0 0 20
N01803           9.0333       1.5000     0 0 20
N02035           15.0041      1.5000     0 0 20
N01719           5.0736       1.5000     0 0 20
N02381           2.7466       1.5000     0 0 20
N01588           29.8567      1.5000     0 0 20
N01777           5.4995       1.5000     0 0 20
N00908           6.7086       1.5000     0 0 20
N01583           15.9127      1.5000     0 0 20
N01350           2.7904       1.5000     0 0 20
N00431           22.7138      1.5000     0 0 20
N00556           24.2929      1.5000     0 0 20
N02054           20.9640      1.5515     0 0 20
N02307           43.5443      1.5000     0 0 20
N02093           26.6043      1.8972     0 0 20
N00201           7.6015       1.5000     0 0 20
N01767           4.8024       1.7840     0 0 20
N00148           7.5823       1.5000     0 0 20
N00094           6.1410       2.5139     0 0 20
N01975           20.9864      1.5000     0 0 20
N01487           3.3185       1.5000     0 0 20
N01511           19.4473      1.5000     0 0 20
N00243           4.7774       1.5000     0 0 20
N02537           37.1170      1.5000     0 0 20
N01439           8.2107       1.5000     0 0 20
N00285           5.7093       1.5000     0 0 20
N01839           10.3168      2.9089     0 0 20
N00203           7.6419       1.5000     0 0 20
N00649           2.7368       1.5000     0 0 20
N02524           24.6400      1.5000     0 0 20
N00216           9.0856       1.5000     0 0 20
N01035           5.5595       1.5000     0 0 20
N00304           5.5408       1.5000     0 0 20
N02823           3.1713       1.5003     0 0 20
N02448           15.6051      1.5000     0 0 20
N02332           26.5884      2.4032     0 0 20
N01081           3.4744       1.5000     0 0 20
N02748           40.7835      1.5000     0 0 20
N02261           16.8090      1.5000     0 0 20
N00065           8.0534       1.5000     0 0 20
N00917           18.7227      1.5000     0 0 20
N02701           5.9911       1.5000     0 0 20
N00855           12.9124      1.9493     0 0 20
N00090           12.6029      1.5000     0 0 20
N01788           4.9238       1.5610     0 0 20
N01382           4.7716       1.5000     0 0 20
N01019           34.5013      1.5000     0 0 20
N02780           17.5660      1.5000     0 0 20
N02161           9.0570       1.5000     0 0 20
N01868           6.1804       1.5000     0 0 20
N00311           9.4207       1.5000     0 0 20
N01211           41.3806      1.5000     0 0 20
N00665           47.5019      1.5000     0 0 20
N01818           32.9908      7.4904     0 0 20
N00605           29.0533      1.5000     0 0 20
N00290           8.9416       2.3466     0 0 20
N02567           19.3431      1.6354     0 0 20
N01411           8.1984       1.5000     0 0 20
N00032           22.0982      1.5000     0 0 20
N02138           11.8936      1.5000     0 0 20
N01381           2.3084       1.5000     0 0 20
N00687           11.9109      1.5000     0 0 20
N01335           43.9571      1.5000     0 0 20
N01607           5.0237       1.5000     0 0 20
N00147           12.1321      1.5000     0 0 20
N01917           17.7615      1.5000     0 0 20
N01709           5.5408       1.5000     0 0 20
N02167           12.1181      1.5000     0 0 20
N01303           19.1821      1.9007     0 0 20
N02605           2.7475       1.5500     0 0 20
N00932           40.3620      1.5000     0 0 20
N02085           3.0183       1.5000     0 0 20
N01367           13.3488      1.5000     0 0 20
N02464           8.9208       1.5000     0 0 20
N01630           2.3721       1.5000     0 0 20
N02104           29.9883      1.5000     0 0 20
N01642           3.0919       1.5000     0 0 20
N02148           6.3336       1.5000     0 0 20
N00600           35.2399      2.8227     0 0 20
N01906           14.0959      1.5000     0 0 20
N00919           13.9855      1.5000     0 0 20
N00617           35.4797      1.5000     0 0 20
N01966           8.3321       1.5000     0 0 20
N02678           10.2703      1.5000     0 0 20
N00109           4.1634       1.5687     0 0 20
N01494           3.7778       1.5000     0 0 20
N02063           13.9520      1.5000     0 0 20
N02629           9.8546       1.5000     0 0 20
N00152           4.3788       1.6392     0 0 20
N00498           16.0246      1.5000     0 0 20
N02296           35.7396      1.5000     0 0 20
N01636           2.3321       1.7119     0 0 20
N02543           20.8021      3.6535     0 0 20
N00921           34.3135      1.5000     0 0 20
N01759           4.9954       1.5000     0 0 20
N02696           7.2297       1.5000     0 0 20
N00299           5.5008       1.5840     0 0 20
N00632           2.3721       1.5000     0 0 20
N00329           3.6362       1.5000     0 0 20
N00424           12.8747      1.5000     0 0 20
N02280           19.4785      1.5000     0 0 20
N01481           5.2206       1.9275     0 0 20
N00242           5.1662       1.5000     0 0 20
N02614           6.6211       1.5000     0 0 20
N01669           10.5313      1.8641     0 0 20
N00173           3.6266       1.5000     0 0 20
N02087           3.2707       1.5000     0 0 20
N00894           9.5008       1.5000     0 0 20
N02060           22.8716      1.5000     0 0 20
N00435           35.6823      1.5000     0 0 20
N01861           9.1998       1.5000     0 0 20
N00064           7.9625       1.5000     0 0 20
N02500           36.4463      1.5000     0 0 20
N01135           24.9789      1.5000     0 0 20
N00991           17.4159      1.5000     0 0 20
N00507           15.3470      1.5000     0 0 20
N01837           10.3789      1.5792     0 0 20
N00182           4.0068       1.5000     0 0 20
N02659           10.2153      1.5000     0 0 20
N01092           38.8190      1.5000     0 0 20
N00317           27.7505      1.5000     0 0 20
N00963           3.7087       1.5000     0 0 20
N00803           8.4056       1.5000     0 0 20
N00929           37.0282      1.8650     0 0 20
N02706           5.6576       1.5000     0 0 20
N01920           15.5260      1.5000     0 0 20
N01444           14.0702      1.5000     0 0 20
N02835           22.1927      2.5204     0 0 20
N01555           7.0760       2.0370     0 0 20
N02728           14.6614      1.7211     0 0 20
N01036           5.9368       1.5300     0 0 20
N01298           5.3767       1.5000     0 0 20
N01209           13.0032      1.5000     0 0 20
N02263           20.2940      1.5000     0 0 20
N02379           3.1197       1.5000     0 0 20
N00370           5.6752       1.5000     0 0 20
N02032           21.3326      1.5000     0 0 20
N02098           31.4419      1.8215     0 0 20
N02613           8.7668       1.5000     0 0 20
N00010           7.6945       1.5000     0 0 20
N00437           30.1940      1.5000     0 0 20
N02551           34.4578      7.2808     0 0 20
N01645           6.4168       1.5000     0 0 20
N02669           10.0341      1.6884     0 0 20
N00828           6.0642       1.5000     0 0 20
N01123           4.6088       1.8403     0 0 20
N00383           5.0758       1.5000     0 0 20
N01884           5.0200       1.5500     0 0 20
N01851           8.8076       1.5000     0 0 20
N00009           8.2162       1.5000     0 0 20
N01765           4.9634       1.6528     0 0 20
N01397           15.4677      1.5000     0 0 20
N02647           11.7839      1.5000     0 0 20
N01526           9.8057       2.9315     0 0 20
N00810           5.4480       1.5000     0 0 20
N02283           21.1232      1.5000     0 0 20
N00175           3.5025       1.6240     0 0 20
N00571           17.6434      1.7832     0 0 20
N01608           4.6547       1.5000     0 0 20
N00284           5.2454       1.5800     0 0 20
N01516           8.0319       1.5000     0 0 20
N01836           9.0633       1.5063     0 0 20
N00164           19.9601      1.5000     0 0 20
N02803           19.5224      1.5000     0 0 20
N02080           11.8268      1.5000     0 0 20
N02652           11.2468      1.5000     0 0 20
N00550           15.7514      1.5000     0 0 20
N02056           7.7294       1.5000     0 0 20
N01145           41.4544      2.5667     0 0 20
N01477           4.8909       1.5000     0 0 20
N02704           5.5596       1.5000     0 0 20
N00070           4.5814       1.5000     0 0 20
N00619           26.3211      1.5000     0 0 20
N02473           3.5842       1.5424     0 0 20
N01512           19.7572      1.5000     0 0 20
N01813           9.4197       1.5000     0 0 20
N02036           17.1338      1.5000     0 0 20
N00250           11.0063      1.5000     0 0 20
N01955           3.9673       1.5000     0 0 20
N01292           6.0003       1.5000     0 0 20
N01731           5.3101       1.5000     0 0 20
N00853           18.7747      1.7038     0 0 20
N01406           26.1693      1.5000     0 0 20
N00871           3.0466       1.5000     0 0 20
N01596           19.0899      1.5000     0 0 20
N01413           19.5134      2.5920     0 0 20
N01888           7.5599       1.5000     0 0 20
N02666           9.2724       1.5000     0 0 20
N01531           22.2868      3.0936     0 0 20
N00229           4.4944       1.5316     0 0 20
N00258           5.0055       1.5000     0 0 20
N00099           6.4035       2.1849     0 0 20
N00336           5.1717       1.6098     0 0 20
N01366           12.8001      1.5000     0 0 20
N01269           3.9490       1.5380     0 0 20
N02544           18.8064      1.5000     0 0 20
N01114           6.7608       1.5966     0 0 20
N00915           13.1460      2.0971     0 0 20
N02329           4.2740       1.5000     0 0 20
N02047           14.3169      1.5000     0 0 20
N00139           3.0891       1.5000     0 0 20
N01574           4.9048       1.5800     0 0 20
N01880           15.0418      1.5000     0 0 20
N01260           19.0647      1.5641     0 0 20
N00347           3.7461       1.5000     0 0 20
N00830           9.4368       1.5000     0 0 20
N02711           17.0422      1.5000     0 0 20
N00546           13.4449      1.5000     0 0 20
N00539           14.0683      1.5000     0 0 20
N02819           4.2748       1.5000     0 0 20
N00410           17.5908      1.5000     0 0 20
N02634           18.2417      1.5000     0 0 20
N02813           5.2917       1.5000     0 0 20
N00251           4.1201       2.2742     0 0 20
N00481           16.7292      1.6595     0 0 20
N02508           21.8787      1.5000     0 0 20
N01060           39.7727      1.5000     0 0 20
N02702           5.8603       1.5000     0 0 20
N00066           7.6945       1.5000     0 0 20
N01125           3.8571       1.6628     0 0 20
N02632           17.4122      1.5000     0 0 20
N01586           29.2327      1.5000     0 0 20
N01496           8.5363       1.5000     0 0 20
N01946           5.7008       1.5000     0 0 20
N00694           8.5788       1.8902     0 0 20
N02071           12.0172      1.5000     0 0 20
N00850           17.9265      1.5000     0 0 20
N02824           3.0791       1.5452     0 0 20
N00124           4.0661       1.5000     0 0 20
N02779           16.9603      1.5000     0 0 20
N00366           4.4762       1.5224     0 0 20
N01532           23.5483      1.5000     0 0 20
N00378           5.8210       1.5000     0 0 20
N00018           8.0195       1.5000     0 0 20
N00397           5.6882       1.5000     0 0 20
N00779           32.6418      1.5000     0 0 20
N00446           18.8997      1.5000     0 0 20
N02530           31.4139      1.5000     0 0 20
N00829           4.9839       1.5861     0 0 20
N01314           15.8062      1.5000     0 0 20
N02521           26.2571      1.5000     0 0 20
N00717           27.5604      1.5000     0 0 20
N01208           6.0829       1.5000     0 0 20
N00491           16.2959      1.5000     0 0 20
N01895           16.4191      1.5000     0 0 20
N00709           18.6739      1.5000     0 0 20
N01353           46.4262      1.5000     0 0 20
N01078           21.2825      1.5000     0 0 20
N00225           9.8546       1.5000     0 0 20
N00330           3.8054       1.5433     0 0 20
N02287           21.8147      1.5000     0 0 20
N02570           19.7745      2.6847     0 0 20
N02105           31.0449      1.5452     0 0 20
N00664           36.2898      1.5000     0 0 20
N02440           15.0806      1.5000     0 0 20
N01756           4.9314       1.5000     0 0 20
N01307           25.4244      1.5000     0 0 20
N01869           6.1304       1.5951     0 0 20
N02231           24.1955      1.5000     0 0 20
N01058           29.5801      1.5000     0 0 20
N00300           5.6109       1.5350     0 0 20
N01515           7.6629       1.5316     0 0 20
N01999           7.9152       1.5000     0 0 20
N02285           22.2085      1.5000     0 0 20
N02476           8.5315       1.5000     0 0 20
N00651           2.6460       1.7218     0 0 20
N01090           22.2743      1.5000     0 0 20
N00180           3.6787       1.5853     0 0 20
N00212           3.3956       1.5000     0 0 20
N01771           4.8524       1.5741     0 0 20
N00313           47.3947      1.9745     0 0 20
N00449           13.0201      1.5000     0 0 20
N01916           12.0001      1.5000     0 0 20
N02608           4.7930       1.5000     0 0 20
N01886           5.0700       1.5000     0 0 20
N02531           39.4344      1.5000     0 0 20
N02061           20.7839      1.5000     0 0 20
N01291           20.8421      1.5000     0 0 20
N01841           10.4412      1.5000     0 0 20
N00774           47.4295      1.5000     0 0 20
N01970           22.8024      1.5000     0 0 20
N01031           5.2417       1.5500     0 0 20
N02170           12.0204      1.5000     0 0 20
N02178           3.0697       1.5000     0 0 20
N00206           6.1433       2.3285     0 0 20
N02111           10.6255      2.0148     0 0 20
N01530           22.2068      1.9339     0 0 20
N01306           25.6684      1.5000     0 0 20
N02596           19.1160      1.5000     0 0 20
N01198           13.8221      1.5000     0 0 20
N01617           2.7466       1.5000     0 0 20
N01668           11.3735      1.5000     0 0 20
N00338           6.8647       1.5000     0 0 20
N00487           15.2598      1.5000     0 0 20
N00692           6.7911       1.5000     0 0 20
N00063           7.7378       1.5000     0 0 20
N00958           3.4974       1.5000     0 0 20
N00679           8.8534       1.5000     0 0 20
N00093           7.6481       1.5000     0 0 20
N02626           11.8139      4.4606     0 0 20
N02266           21.9214      1.5000     0 0 20
N01662           7.1666       1.5000     0 0 20
N00011           7.6345       1.5600     0 0 20
N01721           12.5176      1.5000     0 0 20
N00343           4.4985       1.5000     0 0 20
N02136           11.8729      1.5000     0 0 20
N01083           8.4166       1.5000     0 0 20
N00924           27.2042      1.5673     0 0 20
N00864           24.7596      1.5000     0 0 20
N02310           45.2490      1.5000     0 0 20
N00379           10.4815      1.6507     0 0 20
N01755           4.9950       1.5000     0 0 20
N02140           12.7718      1.5000     0 0 20
N01465           8.0600       1.6886     0 0 20
N02094           26.8206      1.5000     0 0 20
N01552           6.8144       1.5000     0 0 20
N02240           22.1170      1.5000     0 0 20
N00275           7.7890       1.5000     0 0 20
N01795           8.6907       1.9730     0 0 20
N02450           12.8028      1.5000     0 0 20
N01900           15.2623      1.5000     0 0 20
N01616           3.3068       1.5000     0 0 20
N00027           5.1217       1.5000     0 0 20
N01435           7.2061       1.5000     0 0 20
N02501           3.0437       1.5000     0 0 20
N02834           23.0739      1.5000     0 0 20
N00456           16.4943      1.5000     0 0 20
N02653           11.1365      1.5000     0 0 20
N00310           6.8298       1.5000     0 0 20
N00659           3.7199       1.5000     0 0 20
N02208           9.9108       1.5000     0 0 20
N02209           6.5433       1.5000     0 0 20
N00999           21.4326      1.5000     0 0 20
N00254           4.5261       1.5000     0 0 20
N01146           28.3657      1.5000     0 0 20
N01800           8.7551       1.5000     0 0 20
N02822           14.9950      1.5000     0 0 20
N00572           17.6630      1.5000     0 0 20
N00227           5.6816       1.5000     0 0 20
N00691           21.0489      1.5000     0 0 20
N01267           16.5778      1.5000     0 0 20
N02365           3.5849       1.7250     0 0 20
N01143           28.2851      3.4736     0 0 20
N02582           18.9877      1.5000     0 0 20
N00034           21.8825      1.5000     0 0 20
N00398           4.4913       1.5000     0 0 20
N00086           3.1410       1.5000     0 0 20
N01753           4.3852       1.5542     0 0 20
N01266           11.5755      1.5000     0 0 20
N02384           2.2455       2.0692     0 0 20
N01130           3.7383       1.5000     0 0 20
N00620           28.8720      1.5000     0 0 20
N01407           25.8538      1.5000     0 0 20
N00176           3.5305       1.5000     0 0 20
N02250           22.8672      1.5000     0 0 20
N00217           3.7457       1.5000     0 0 20
N02019           20.9982      1.5000     0 0 20
N00645           2.2915       1.5806     0 0 20
N01365           26.0955      1.5000     0 0 20
N01535           19.0222      1.5000     0 0 20
N00127           5.5565       1.5000     0 0 20
N02680           14.3568      1.5000     0 0 20
N01643           3.3609       1.5000     0 0 20
N01455           3.0810       1.5000     0 0 20
N00149           3.9926       1.5000     0 0 20
N02199           5.2653       1.5000     0 0 20
N01445           12.3798      1.5000     0 0 20
N00920           34.4306      1.5000     0 0 20
N01713           5.0443       1.5000     0 0 20
N00215           4.9475       1.5000     0 0 20
N02326           3.0437       1.5000     0 0 20
N01846           10.4202      1.5000     0 0 20
N01640           2.4918       1.7960     0 0 20
N01046           28.3916      1.5988     0 0 20
N02002           8.1594       1.5000     0 0 20
N02709           2.6986       1.5000     0 0 20
N00354           4.4125       3.4294     0 0 20
N01271           4.1989       1.5000     0 0 20
N00486           15.7949      1.5000     0 0 20
N02026           17.8388      1.5000     0 0 20
N00725           7.0313       1.5000     0 0 20
N02846           3.7383       1.5000     0 0 20
N02068           21.8856      1.9536     0 0 20
N01254           10.1605      1.8832     0 0 20
N01127           11.2462      1.5000     0 0 20
N00778           29.1337      4.2951     0 0 20
N01984           17.7775      1.5000     0 0 20
N00165           27.2458      1.5000     0 0 20
N02204           7.3331       1.5000     0 0 20
N00268           4.4156       2.0759     0 0 20
N01304           19.2044      1.7505     0 0 20
N01327           17.9897      4.8824     0 0 20
N00193           3.7768       1.5000     0 0 20
N02366           3.0997       1.6440     0 0 20
N00168           3.6266       1.5000     0 0 20
N00861           19.0712      1.5000     0 0 20
N02411           48.1386      1.5000     0 0 20
N01468           3.7300       1.5000     0 0 20
N02538           41.0950      1.5000     0 0 20
N00493           15.9122      1.5224     0 0 20
N00744           9.6945       1.5000     0 0 20
N00511           16.0606      1.5000     0 0 20
N02325           2.7885       1.5000     0 0 20
N00239           4.2465       1.5000     0 0 20
N00542           13.9706      1.5000     0 0 20
N02430           18.7033      1.5000     0 0 20
N00353           7.0829       1.5000     0 0 20
N00627           10.4874      1.5000     0 0 20
N01695           4.9848       1.5000     0 0 20
N00455           13.4067      2.1599     0 0 20
N01796           8.8155       1.5000     0 0 20
N01248           2.8755       1.5000     0 0 20
N02065           24.2695      1.5000     0 0 20
N02102           30.6676      1.5000     0 0 20
N02474           3.8616       1.5000     0 0 20
N01852           11.3582      1.5000     0 0 20
N02278           21.8591      1.5000     0 0 20
N00287           6.2195       1.5000     0 0 20
N02128           10.3671      1.5000     0 0 20
N01897           14.7624      1.5000     0 0 20
N01378           12.9593      1.5000     0 0 20
N00727           25.6234      1.5000     0 0 20
N00292           12.4709      1.5000     0 0 20
N01773           5.1789       1.5000     0 0 20
N00948           46.0493      2.6175     0 0 20
N01272           4.2625       1.5097     0 0 20
N01834           10.0667      1.5000     0 0 20
N01879           16.5218      1.5000     0 0 20
N01374           6.4395       2.1801     0 0 20
N01659           3.6266       1.5000     0 0 20
N00827           6.5062       1.5000     0 0 20
N00104           3.6489       1.5500     0 0 20
N01690           5.4908       1.8691     0 0 20
N01913           7.4320       1.5000     0 0 20
N02415           29.8847      1.5000     0 0 20
N02698           26.6904      1.5000     0 0 20
N02697           24.2635      1.5000     0 0 20
N02443           3.7562       1.5000     0 0 20
N00786           2.6047       1.5000     0 0 20
N02016           13.3447      1.5000     0 0 20
N02566           19.4285      2.0027     0 0 20
N00906           4.3272       1.5000     0 0 20
N01438           8.4117       1.5000     0 0 20
N00319           22.5146      1.5000     0 0 20
N00975           7.7584       1.5000     0 0 20
N01519           3.8454       1.5000     0 0 20
N02124           18.8083      2.0515     0 0 20
N00684           11.8697      1.5000     0 0 20
N02083           3.0183       1.5000     0 0 20
N02158           5.9227       1.5000     0 0 20
N01774           4.9210       1.5000     0 0 20
N00013           7.7787       1.5000     0 0 20
N00222           3.6266       1.5000     0 0 20
N02535           37.3255      1.5000     0 0 20
N01308           15.9266      1.5000     0 0 20
N01989           14.2123      1.5000     0 0 20
N02590           21.4348      1.5000     0 0 20
N01635           2.3721       1.5000     0 0 20
N01483           4.1989       1.5000     0 0 20
N00035           21.3369      1.5000     0 0 20
N00540           14.0573      1.5000     0 0 20
N01312           19.4927      1.5000     0 0 20
N01993           8.6335       1.5000     0 0 20
N01533           20.6471      2.2414     0 0 20
N02050           12.8390      1.5000     0 0 20
N01547           5.2917       1.5000     0 0 20
N00443           20.1137      1.5000     0 0 20
N01579           6.2209       1.5163     0 0 20
N01597           20.3164      1.5000     0 0 20
N02160           5.5477       1.5000     0 0 20
N01677           3.4191       1.5000     0 0 20
N00454           11.1823      1.5000     0 0 20
N01934           6.1185       1.5000     0 0 20
N02243           24.5527      1.5000     0 0 20
N01866           6.8132       1.5000     0 0 20
N00501           15.1703      1.7680     0 0 20
N01802           7.4405       3.4813     0 0 20
N00261           10.3410      1.5000     0 0 20
N00636           3.0220       1.5000     0 0 20
N01489           4.0318       1.5000     0 0 20
N02044           17.3006      1.5000     0 0 20
N02796           3.6266       1.5000     0 0 20
N01501           10.3490      1.5000     0 0 20
N01341           11.8945      1.5829     0 0 20
N02635           17.2035      1.5000     0 0 20
N02569           20.9963      1.5000     0 0 20
N01817           8.1430       1.5000     0 0 20
N01763           4.3537       1.5000     0 0 20
N02058           13.6913      1.5000     0 0 20
N01752           5.9711       1.5000     0 0 20
N00190           3.8505       1.5000     0 0 20
N02305           44.4943      1.5000     0 0 20
N02747           4.9991       1.5000     0 0 20
N01256           23.4888      1.5000     0 0 20
N01923           11.0217      1.5000     0 0 20
N02519           9.8384       1.5746     0 0 20
N01480           5.9082       1.5000     0 0 20
N00713           33.8927      1.5000     0 0 20
N01442           9.5089       1.5000     0 0 20
N01957           19.3536      1.5000     0 0 20
N02258           17.3494      1.5000     0 0 20
N01433           7.3797       1.5000     0 0 20
N00451           12.5217      1.5000     0 0 20
N02831           20.1872      1.5000     0 0 20
N02514           15.9346      1.5000     0 0 20
N00609           43.4194      1.5000     0 0 20
N00650           2.4603       1.5000     0 0 20
N00783           43.1460      2.3812     0 0 20
N02092           26.6559      1.5000     0 0 20
N00640           3.2152       1.5000     0 0 20
N00298           5.4101       1.6489     0 0 20
N00097           6.1210       1.7678     0 0 20
N02134           9.1790       1.5000     0 0 20
N02375           3.8946       1.5000     0 0 20
N02084           3.2911       1.5000     0 0 20
N01965           11.0018      1.5000     0 0 20
N02316           7.2047       1.5000     0 0 20
N02617           2.7370       1.5000     0 0 20
N01559           4.5901       1.5000     0 0 20
N01385           3.0697       1.5000     0 0 20
N02427           12.3435      1.5000     0 0 20
N02048           16.1122      1.5000     0 0 20
N01472           3.0697       1.5000     0 0 20
N02753           6.6849       1.6881     0 0 20
N02703           6.7907       1.5000     0 0 20
N02744           3.0684       1.5000     0 0 20
N01163           2.5540       1.6927     0 0 20
N02589           20.2190      1.5000     0 0 20
N01000           22.7056      1.5000     0 0 20
N00442           20.0416      3.1894     0 0 20
N01061           24.6346      1.5000     0 0 20
N01210           22.1132      1.5000     0 0 20
N01038           5.5861       1.5000     0 0 20
N01491           5.3038       1.5000     0 0 20
N02782           19.2338      1.5000     0 0 20
N00513           15.9346      1.5000     0 0 20
N01400           16.1670      1.5000     0 0 20
N00342           5.2435       1.5000     0 0 20
N01008           23.1917      1.5000     0 0 20
N01402           21.2861      1.5000     0 0 20
N02599           15.3021      1.9892     0 0 20
N02717           6.0830       1.5000     0 0 20
N01830           8.6921       1.5000     0 0 20
N02248           19.9225      1.5000     0 0 20
N00279           5.5408       1.5000     0 0 20
N02675           10.6935      1.5000     0 0 20
N01364           31.0949      1.5000     0 0 20
N02630           7.1975       1.5000     0 0 20
N01446           8.8034       1.5000     0 0 20
N01932           6.8471       1.5000     0 0 20
N02611           2.7975       1.5000     0 0 20
N02390           5.4884       1.5000     0 0 20
N01745           4.4829       1.5000     0 0 20
N00223           3.9258       1.5000     0 0 20
N01354           35.6725      1.5000     0 0 20
N01032           6.7430       1.5000     0 0 20
N01639           2.2274       1.6448     0 0 20
N00368           9.0517       1.5000     0 0 20
N02352           3.0987       1.5447     0 0 20
N00117           11.8175      1.5000     0 0 20
N02729           18.6922      1.5000     0 0 20
N00341           4.4485       1.5000     0 0 20
N00909           9.8013       4.1196     0 0 20
N02355           3.2582       1.5000     0 0 20
N00327           3.8347       1.5000     0 0 20
N01275           7.2189       1.5000     0 0 20
N01362           32.6448      1.5000     0 0 20
N00076           20.9098      1.5000     0 0 20
N02623           3.5460       1.5806     0 0 20
N00685           11.9109      1.5000     0 0 20
N00102           6.4046       1.5000     0 0 20
N02270           45.0509      1.5374     0 0 20
N01273           4.0723       1.5000     0 0 20
N02686           21.4305      2.5828     0 0 20
N01368           15.5494      1.5000     0 0 20
N02433           2.2666       1.5000     0 0 20
N02249           17.9669      1.5000     0 0 20
N01006           20.0480      1.5000     0 0 20
N02471           5.4823       1.5000     0 0 20
N02442           3.7562       1.5000     0 0 20
N00484           15.5235      1.6497     0 0 20
N00445           27.2641      1.5000     0 0 20
N00547           11.9438      1.5000     0 0 20
N01912           8.2360       1.5000     0 0 20
N01778           5.0522       1.5000     0 0 20
N00796           3.6266       1.5000     0 0 20
N01890           26.3352      1.5000     0 0 20
N02693           23.7519      1.5000     0 0 20
N02075           14.5898      1.5000     0 0 20
N01648           7.6204       1.5741     0 0 20
N01697           5.9166       3.3727     0 0 20
N00305           7.0159       1.5000     0 0 20
N00253           3.0999       1.5000     0 0 20
N01392           4.4770       1.5000     0 0 20
N00504           16.2431      1.5000     0 0 20
N01522           10.5324      1.5000     0 0 20
N00536           11.6214      1.5000     0 0 20
N00986           17.1391      1.5000     0 0 20
N00508           16.0198      1.5000     0 0 20
N00825           7.5237       1.5000     0 0 20
N00502           15.8585      1.5000     0 0 20
N01820           9.1133       1.5000     0 0 20
N01349           3.6978       1.5000     0 0 20
N01069           16.5317      1.5000     0 0 20
N01952           3.5559       1.5707     0 0 20
N00945           45.1013      1.5000     0 0 20
N00453           13.2444      1.5000     0 0 20
N00395           4.9599       2.2282     0 0 20
N02282           21.7072      1.5000     0 0 20
N01470           9.2503       1.5000     0 0 20
N01115           6.8574       1.5000     0 0 20
N02740           20.0582      1.5000     0 0 20
N02137           13.8595      1.5000     0 0 20
N02799           18.7632      1.5000     0 0 20
N00726           13.1513      1.5000     0 0 20
N01299           4.1767       1.5000     0 0 20
N02657           11.7839      1.5000     0 0 20
N00006           6.8015       1.5000     0 0 20
N01951           3.6266       1.5000     0 0 20
N02769           4.2996       1.5000     0 0 20
N01905           20.9834      1.5000     0 0 20
N02126           16.3647      1.5000     0 0 20
N02303           37.5188      1.5000     0 0 20
N00195           5.8956       1.5000     0 0 20
N00892           9.0701       1.5000     0 0 20
N02109           18.8806      3.6925     0 0 20
N00393           5.3005       1.5000     0 0 20
N00364           4.3871       1.5000     0 0 20
N00597           22.2230      1.5000     0 0 20
N02424           20.5654      1.5000     0 0 20
N00191           3.5842       1.5424     0 0 20
N00904           3.4366       1.5000     0 0 20
N01028           4.1885       1.5000     0 0 20
N00623           11.0517      1.5000     0 0 20
N02694           47.3985      1.5000     0 0 20
N01249           2.2484       1.8311     0 0 20
N00440           29.1590      1.5000     0 0 20
N00143           10.0974      1.5000     0 0 20
N00337           6.2408       1.5000     0 0 20
N02407           23.6064      1.5000     0 0 20
N01661           6.0288       1.5000     0 0 20
N01725           8.0080       4.0540     0 0 20
N02811           8.2789       1.5000     0 0 20
N02832           23.3069      1.5000     0 0 20
N00169           4.6745       1.5000     0 0 20
N01283           45.1320      1.5000     0 0 20
N01816           8.3099       1.5000     0 0 20
N01207           8.5264       1.5000     0 0 20
N00782           43.2266      1.5000     0 0 20
N01838           10.2286      1.7050     0 0 20
N01710           4.9525       1.5323     0 0 20
N02122           9.7349       2.4907     0 0 20
N01132           3.8979       1.5000     0 0 20
N02196           5.5192       1.5000     0 0 20
N01131           4.0427       1.5000     0 0 20
N00293           6.7985       1.5000     0 0 20
N01048           33.5451      1.5000     0 0 20
N00091           6.1857       1.5000     0 0 20
N02272           22.7609      1.5000     0 0 20
N01903           20.0895      2.5863     0 0 20
N02005           13.2657      1.5000     0 0 20
N00098           6.7350       1.5000     0 0 20
N02164           10.8379      1.5000     0 0 20
N00416           19.3546      1.5000     0 0 20
N02568           19.4285      2.4939     0 0 20
N00277           7.6012       1.6741     0 0 20
N02546           21.8887      1.5000     0 0 20
N01347           3.9991       1.5000     0 0 20
N01073           12.7484      1.5000     0 0 20
N01960           23.0819      1.5000     0 0 20
N01004           22.4610      1.5000     0 0 20
N00776           37.1232      1.5000     0 0 20
N01997           9.8978       1.5000     0 0 20
N00860           19.3997      1.5000     0 0 20
N00998           20.8625      1.5000     0 0 20
N00797           5.0267       1.5000     0 0 20
N00806           5.5338       1.5000     0 0 20
N00266           4.4179       1.6082     0 0 20
N02817           4.3434       1.5000     0 0 20
N00092           3.9215       1.5000     0 0 20
N00404           3.1435       1.5000     0 0 20
N02815           4.8198       1.5000     0 0 20
N00438           18.9506      1.5000     0 0 20
N01835           9.0209       2.1883     0 0 20
N00714           24.7332      1.5000     0 0 20
N02007           11.6044      1.5000     0 0 20
N00965           7.2310       1.5000     0 0 20
N02679           13.5041      1.5000     0 0 20
N01573           6.3609       1.5000     0 0 20
N02498           6.8476       1.5000     0 0 20
N02792           8.4007       1.5000     0 0 20
N01881           6.3702       1.5000     0 0 20
N00554           22.0905      2.3616     0 0 20
N01142           20.9982      1.5000     0 0 20
N01216           48.3428      1.5000     0 0 20
N02264           19.1097      1.5000     0 0 20
N00221           4.1041       1.5948     0 0 20
N01988           13.1876      1.5000     0 0 20
N01251           9.8640       1.5000     0 0 20
N02073           11.3253      1.5000     0 0 20
N02029           18.6533      2.1631     0 0 20
N02838           18.7528      1.5000     0 0 20
N01551           5.8850       1.5000     0 0 20
N02576           3.0108       1.5000     0 0 20
N02232           26.9263      5.0608     0 0 20
N02392           5.2766       1.5000     0 0 20
N01420           16.1803      1.5000     0 0 20
N02033           19.7538      1.5000     0 0 20
N00608           47.8880      1.5000     0 0 20
N00739           16.8193      1.5000     0 0 20
N02484           3.8226       1.5000     0 0 20
N00351           5.6829       1.5000     0 0 20
N00962           3.9321       1.5000     0 0 20
N02522           42.6386      4.7150     0 0 20
N02690           23.5202      1.5000     0 0 20
N01255           15.5846      1.5000     0 0 20
N00638           2.7744       1.5000     0 0 20
N02774           24.4900      1.5000     0 0 20
N01037           5.5361       1.5230     0 0 20
N02003           9.9929       1.5000     0 0 20
N02736           15.0092      1.5000     0 0 20
N01369           14.5153      1.5000     0 0 20
N00833           2.5635       4.5889     0 0 20
N00401           3.5804       1.5000     0 0 20
N01882           10.2519      1.5000     0 0 20
N02665           10.9960      1.5000     0 0 20
N00610           40.7612      3.1226     0 0 20
N00695           27.0961      1.5000     0 0 20
N00344           6.3556       1.5000     0 0 20
N02006           10.7141      1.5000     0 0 20
N00530           11.8499      1.5000     0 0 20
N00384           3.9573       1.6710     0 0 20
N02276           21.7198      1.5000     0 0 20
N02072           11.7839      1.5000     0 0 20
N01638           2.3721       1.5000     0 0 20
N00624           9.1418       1.5000     0 0 20
N00531           16.0123      1.5000     0 0 20
N02631           14.7026      1.5000     0 0 20
N00232           3.1842       1.5000     0 0 20
N01315           15.4908      1.5000     0 0 20
N00492           15.3294      1.5000     0 0 20
N02277           19.4785      1.5000     0 0 20
N02049           11.5348      1.5000     0 0 20
N02488           3.5490       1.5000     0 0 20
N01120           5.4208       1.6593     0 0 20
N01117           7.9312       1.5000     0 0 20
N00381           5.3845       1.5000     0 0 20
N01278           30.1870      1.5000     0 0 20
N00107           7.7631       1.6572     0 0 20
N00272           8.9660       1.5000     0 0 20
N02610           4.2596       1.6594     0 0 20
N00391           5.0595       1.5000     0 0 20
N02483           5.6354       1.6480     0 0 20
N00509           16.2588      1.5000     0 0 20
N00224           6.5538       1.5000     0 0 20
N01063           22.0327      1.5000     0 0 20
N00533           16.6411      1.5000     0 0 20
N02055           20.7957      1.5000     0 0 20
N01599           17.3517      1.5000     0 0 20
N01678           3.8468       1.5000     0 0 20
N01043           42.7441      1.5000     0 0 20
N01660           3.7726       1.6793     0 0 20
N02738           19.8343      1.5000     0 0 20
N00588           18.7761      2.2021     0 0 20
N02804           20.5338      1.5000     0 0 20
N02485           3.6266       1.5000     0 0 20
N01849           5.8287       1.6086     0 0 20
N01873           3.7096       1.8980     0 0 20
N01427           7.6458       1.5000     0 0 20
N00858           13.3876      1.5000     0 0 20
N01910           11.9228      1.5000     0 0 20
N01401           24.4792      1.5000     0 0 20
N00622           7.3800       1.5000     0 0 20
N01011           19.9367      1.5000     0 0 20
N02141           5.5804       1.5000     0 0 20
N00957           3.6005       1.5000     0 0 20
N02188           2.8497       1.8647     0 0 20
N00817           4.1183       1.5806     0 0 20
N00211           1.4124       1.5000     0 0 20
N00777           29.1502      1.5000     0 0 20
N02370           3.2254       1.5000     0 0 20
N00616           36.3260      1.5000     0 0 20
N00697           16.7370      1.5000     0 0 20
N01436           7.2767       1.5000     0 0 20
N02435           12.9881      1.5000     0 0 20
N00262           5.6436       1.5000     0 0 20
N01872           7.1868       1.5000     0 0 20
N00870           11.0116      1.5000     0 0 20
N01602           48.3048      1.5000     0 0 20
N01790           5.0332       1.5000     0 0 20
N01499           6.8290       1.5000     0 0 20
N01606           4.9182       1.5000     0 0 20
N02330           3.1435       1.5000     0 0 20
N01024           27.5340      1.5000     0 0 20
N00132           4.6657       1.5000     0 0 20
N01610           3.2096       1.5671     0 0 20
N02378           6.1483       1.5000     0 0 20
N01022           47.1269      1.8966     0 0 20
N01204           19.2583      1.5000     0 0 20
N01892           14.7256      1.5000     0 0 20
N01864           6.7132       1.6632     0 0 20
N00331           4.4879       1.5000     0 0 20
N02274           22.0585      1.7004     0 0 20
N00267           4.5261       1.5000     0 0 20
N01656           5.4271       1.5224     0 0 20
N00360           7.2872       1.5000     0 0 20
N02246           22.8065      1.5000     0 0 20
N00794           3.9073       1.5775     0 0 20
N00926           15.3304      1.5000     0 0 20
N00606           33.2320      1.5000     0 0 20
N00308           8.2051       1.5000     0 0 20
N02082           3.0950       1.5000     0 0 20
N01316           16.9459      1.5000     0 0 20
N01490           4.8104       1.5000     0 0 20
N01523           9.3748       1.5000     0 0 20
N01320           14.9265      1.5000     0 0 20
N00535           19.6041      1.5000     0 0 20
N00879           3.0183       1.5000     0 0 20
N00667           35.8075      1.5000     0 0 20
N02750           44.8522      1.5000     0 0 20
N01287           10.8755      1.5200     0 0 20
N00769           17.2201      2.7110     0 0 20
N00801           5.4494       1.5000     0 0 20
N01478           4.4977       1.5000     0 0 20
N00322           11.3939      1.5000     0 0 20
N00514           16.9062      1.5000     0 0 20
N00008           6.7116       1.5000     0 0 20
N00110           6.7127       1.5000     0 0 20
N02327           5.7078       1.5000     0 0 20
N00944           47.8395      1.5000     0 0 20
N02458           34.2162      1.5000     0 0 20
N01343           3.6266       1.5000     0 0 20
N01862           7.0126       1.5000     0 0 20
N01259           19.1230      1.5000     0 0 20
N00587           19.4061      1.5000     0 0 20
N02583           20.2453      1.5000     0 0 20
N01776           4.8906       1.5941     0 0 20
N02013           25.8399      1.5000     0 0 20
N01253           13.2510      1.6838     0 0 20
N02673           11.4637      1.5000     0 0 20
N01889           7.7867       1.5000     0 0 20
N01319           14.2877      1.5000     0 0 20
N01030           6.3038       1.5000     0 0 20
N00648           2.7005       1.5000     0 0 20
N02606           4.4971       1.5000     0 0 20
N02260           17.5382      1.5000     0 0 20
N01847           8.9507       1.5000     0 0 20
N02712           16.4048      1.5000     0 0 20
N00172           3.6266       1.5000     0 0 20
N01840           9.5621       1.5000     0 0 20
N02755           12.7803      1.5000     0 0 20
N01933           6.7911       1.5000     0 0 20
N00405           3.6242       1.6588     0 0 20
N01430           6.4166       1.5000     0 0 20
N00288           6.2773       1.5000     0 0 20
N01945           5.1986       1.5000     0 0 20
N02649           11.3170      1.5000     0 0 20
N01339           11.3939      1.5000     0 0 20
N02743           5.6376       1.5000     0 0 20
N02024           15.2151      3.2343     0 0 20
N00497           16.1925      1.5000     0 0 20
N01113           6.8433       1.6278     0 0 20
N01075           14.0248      1.5000     0 0 20
N00952           33.7697      1.5000     0 0 20
N00135           4.8016       1.5000     0 0 20
N01469           3.6542       1.5852     0 0 20
N01345           3.5305       1.5000     0 0 20
N01627           3.1251       1.5000     0 0 20
N00974           25.6976      1.5000     0 0 20
N01623           2.9635       1.5941     0 0 20
N02497           6.7676       1.6523     0 0 20
N02718           6.7414       1.5000     0 0 20
N02505           22.8800      1.5000     0 0 20
N00409           17.5846      1.5000     0 0 20
N01542           3.7457       1.5000     0 0 20
N01787           6.2854       1.5000     0 0 20
N01760           4.7221       1.5000     0 0 20
N02716           5.6670       1.5000     0 0 20
N02739           18.7980      1.5000     0 0 20
N02211           5.5285       1.5000     0 0 20
N01751           4.3309       1.5000     0 0 20
N02237           27.4047      1.5000     0 0 20
N01517           8.0408       1.5000     0 0 20
N00543           13.0060      1.5141     0 0 20
N00273           8.0296       1.5000     0 0 20
N00036           20.2005      1.5000     0 0 20
N01414           19.6215      1.5000     0 0 20
N01747           7.1662       1.5000     0 0 20
N01384           2.4503       1.9825     0 0 20
N01564           19.4712      1.5000     0 0 20
N01808           8.7622       1.5172     0 0 20
N00100           4.5191       1.5000     0 0 20
N01750           4.5605       1.7757     0 0 20
N01780           5.1751       1.5000     0 0 20
N00795           3.6430       1.5000     0 0 20
N00575           44.0782      1.5000     0 0 20
N00992           17.6782      1.5000     0 0 20
N01318           12.7116      4.7996     0 0 20
N00394           4.4665       1.5000     0 0 20
N02306           43.6764      1.5000     0 0 20
N00382           3.8161       1.5000     0 0 20
N01205           24.9018      3.9363     0 0 20
N00105           3.8074       1.5000     0 0 20
N02377           2.9377       1.7179     0 0 20
N00888           3.8591       1.5000     0 0 20
N02540           4.5436       1.5626     0 0 20
N02371           3.7587       1.5000     0 0 20
N00192           3.5525       1.5740     0 0 20
N00934           2.7359       1.5000     0 0 20
N01740           4.9761       1.5000     0 0 20
N02827           29.6033      1.5000     0 0 20
N02062           15.8749      1.5000     0 0 20
N00823           4.9475       1.5000     0 0 20
N00704           16.6702      1.5000     0 0 20
N00256           4.5261       1.5000     0 0 20
N00178           3.6266       1.5000     0 0 20
N02545           18.9374      1.5000     0 0 20
N02664           8.0444       1.5000     0 0 20
N01899           10.3483      1.5000     0 0 20
N00022           6.8574       1.5000     0 0 20
N02187           2.9303       1.5000     0 0 20
N02385           2.1246       2.5640     0 0 20
N00980           4.9769       1.5000     0 0 20
N01514           9.5997       1.5000     0 0 20
N02376           3.3805       1.5000     0 0 20
N02633           18.0527      1.5000     0 0 20
N02656           11.7216      1.5000     0 0 20
N02077           13.2866      1.5000     0 0 20
N02727           16.9293      1.5000     0 0 20
N02489           3.9266       1.5000     0 0 20
N01215           26.7282      1.5000     0 0 20
N02070           42.8756      1.5000     0 0 20
N02135           11.1361      1.5000     0 0 20
N01628           3.8429       1.5000     0 0 20
N00812           15.1690      1.5000     0 0 20
N00126           3.0697       1.5000     0 0 20
N01908           12.9769      1.5000     0 0 20
N02810           10.1193      1.5000     0 0 20
N00836           5.6033       1.5000     0 0 20
N01426           7.9875       1.6766     0 0 20
N01257           23.5901      1.5000     0 0 20
N01826           9.0660       1.5000     0 0 20
N01624           3.0416       1.5000     0 0 20
N00209           6.7860       1.5000     0 0 20
N01585           29.8067      3.4929     0 0 20
N02294           34.2785      1.5000     0 0 20
N00506           16.9155      1.5368     0 0 20
N01874           4.1673       1.5316     0 0 20
N02286           19.8452      1.5000     0 0 20
N02833           28.4229      1.5000     0 0 20
N00385           4.0083       1.5000     0 0 20
N00849           16.7740      1.5000     0 0 20
N00798           4.0940       1.5000     0 0 20
N00793           3.6266       1.5000     0 0 20
N00282           6.4949       1.5000     0 0 20
N00369           7.1220       1.5000     0 0 20
N00436           24.3394      1.5000     0 0 20
N00103           4.1848       1.5000     0 0 20
N01059           30.0926      1.5000     0 0 20
N01342           9.8984       1.5000     0 0 20
N01885           6.4929       1.5000     0 0 20
N00108           4.2415       1.5000     0 0 20
N01749           4.5711       1.5000     0 0 20
N00116           9.6235       1.5000     0 0 20
N00276           7.6344       1.5000     0 0 20
N01797           5.7655       1.5000     0 0 20
N02828           32.9980      1.5000     0 0 20
N02565           4.9609       1.5000     0 0 20
N00197           3.6920       1.5000     0 0 20
N00357           9.2875       1.5000     0 0 20
N02604           6.2955       1.5000     0 0 20
N00987           16.9219      1.5000     0 0 20
N02618           2.9592       1.5000     0 0 20
N02724           15.9982      1.5468     0 0 20
N00352           7.4479       1.5000     0 0 20
N00696           15.2614      1.5000     0 0 20
N01735           5.7852       1.5000     0 0 20
N02615           8.5984       1.5000     0 0 20
N00386           4.5065       1.5000     0 0 20
N02636           12.3372      1.5000     0 0 20
N02670           8.5930       1.5000     0 0 20
N01111           9.1984       1.5000     0 0 20
N01919           20.1653      1.5000     0 0 20
N02027           16.9428      1.5000     0 0 20
N01937           21.6933      1.5000     0 0 20
N02367           2.9577       1.5000     0 0 20
N00964           3.6266       1.5000     0 0 20
N02289           26.7584      1.5000     0 0 20
N01688           4.9014       1.5000     0 0 20
N01023           29.0161      1.5000     0 0 20
N02737           18.4541      1.5000     0 0 20
N02125           15.2920      1.5000     0 0 20
N00503           17.2797      1.5000     0 0 20
N02052           21.1677      1.5000     0 0 20
N02317           3.8460       1.5000     0 0 20
N00573           17.7853      2.5910     0 0 20
N00131           4.9193       1.5000     0 0 20
N00374           3.0743       1.5000     0 0 20
N00238           9.8170       1.5000     0 0 20
N01724           5.0404       1.5000     0 0 20
N01053           40.2521      1.5000     0 0 20
N01500           4.8424       1.5000     0 0 20
N00245           4.1884       1.8738     0 0 20
N02172           15.1710      1.5000     0 0 20
N00408           17.2577      1.5000     0 0 20
N01405           27.6478      1.5000     0 0 20
N01065           27.5602      1.5000     0 0 20
N01185           21.5459      1.5000     0 0 20
N01613           2.5342       1.5000     0 0 20
N02106           28.5090      1.5000     0 0 20
N02238           26.9263      4.4760     0 0 20
N01112           6.5275       1.5000     0 0 20
N00362           5.2033       1.5000     0 0 20
N02121           11.7616      2.3317     0 0 20
N00990           23.7948      1.5000     0 0 20
N00403           3.1615       1.5000     0 0 20
N00345           4.8355       1.5000     0 0 20
N02642           7.5322       1.5000     0 0 20
N00680           9.9150       1.5000     0 0 20
N00142           8.2958       1.5000     0 0 20
N02487           4.0044       1.5000     0 0 20
N00210           8.9316       1.5000     0 0 20
N00773           30.8402      1.5000     0 0 20
N01982           19.6549      1.5000     0 0 20
N00877           3.7241       1.5141     0 0 20
N02532           39.3344      1.5000     0 0 20
N02288           29.0275      1.5000     0 0 20
N00406           3.5007       1.5000     0 0 20
N01540           4.9475       1.5000     0 0 20
N00824           6.3193       1.7849     0 0 20
N02214           21.9939      1.5000     0 0 20
N00614           26.6797      2.2704     0 0 20
N00414           33.0208      1.5000     0 0 20
N01286           21.0302      1.5000     0 0 20
N00566           11.3922      1.5000     0 0 20
N02318           3.7660       2.4152     0 0 20
N00084           3.0053       1.5384     0 0 20
N00163           10.9197      1.5000     0 0 20
N02213           6.3639       1.5000     0 0 20
N01537           4.8830       1.5616     0 0 20
N01860           8.4150       3.5457     0 0 20
N02133           10.2005      1.5000     0 0 20
N00179           3.5658       1.6680     0 0 20
N00720           22.4786      2.4163     0 0 20
N01651           7.3383       1.5000     0 0 20
N00159           9.6548       1.5000     0 0 20
N02457           33.9481      1.5000     0 0 20
N01998           10.0578      1.5000     0 0 20
N02726           16.0474      1.5000     0 0 20
N01119           5.5408       1.5000     0 0 20
N02097           29.3078      1.5000     0 0 20
N01950           4.4337       1.5000     0 0 20
N02245           20.1476      1.5000     0 0 20
N00548           13.5776      1.5000     0 0 20

[OUTFALLS]
OUT01            7.7687       NORMAL  NO
OUT02            14.5123      NORMAL  NO
OUT03            2.9953       NORMAL  NO
OUT04            3.8399       NORMAL  NO
OUT05            3.7402       NORMAL  NO
OUT06            2.9675       NORMAL  NO
OUT07            19.7898      NORMAL  NO
OUT08            3.4925       NORMAL  NO
OUT09            3.5558       NORMAL  NO
OUT10            1.4024       NORMAL  NO
OUT11            4.6998       NORMAL  NO
OUT12            4.7674       NORMAL  NO
OUT13            4.1101       NORMAL  NO
OUT14            4.4079       NORMAL  NO
OUT15            4.4056       NORMAL  NO
OUT16            6.7885       NORMAL  NO
OUT17            5.4001       NORMAL  NO
OUT18            3.7623       NORMAL  NO
OUT19            3.7061       NORMAL  NO
OUT20            3.9473       NORMAL  NO
OUT21            24.6279      NORMAL  NO
OUT22            13.1393      NORMAL  NO
OUT23            20.0316      NORMAL  NO
OUT24            12.4704      NORMAL  NO
OUT25            11.1723      NORMAL  NO
OUT26            15.2498      NORMAL  NO
OUT27            15.8222      NORMAL  NO
OUT28            15.2782      NORMAL  NO
OUT29            15.1191      NORMAL  NO
OUT30            12.9960      NORMAL  NO
OUT31            15.9212      NORMAL  NO
OUT32            18.7661      NORMAL  NO
OUT33            2.2423       NORMAL  NO
OUT34            35.7975      NORMAL  NO
OUT35            7.1160       NORMAL  NO
OUT36            11.9009      NORMAL  NO
OUT37            42.3023      NORMAL  NO
OUT38            7.0213       NORMAL  NO
OUT39            16.8093      NORMAL  NO
OUT40            9.6845       NORMAL  NO
OUT41            15.6926      NORMAL  NO
OUT42            2.6770       NORMAL  NO
OUT43            44.5563      NORMAL  NO
OUT44            3.6166       NORMAL  NO
OUT45            5.4394       NORMAL  NO
OUT46            4.7933       NORMAL  NO
OUT47            4.9739       NORMAL  NO
OUT48            2.3793       NORMAL  NO
OUT49            17.1084      NORMAL  NO
OUT50            12.9024      NORMAL  NO
OUT51            19.0612      NORMAL  NO
OUT52            2.7270       NORMAL  NO
OUT53            8.2842       NORMAL  NO
OUT54            8.3649       NORMAL  NO
OUT55            9.0601       NORMAL  NO
OUT56            5.2034       NORMAL  NO
OUT57            12.4410      NORMAL  NO
OUT58            34.5680      NORMAL  NO
OUT59            4.8764       NORMAL  NO
OUT60            16.5546      NORMAL  NO
OUT61            19.4942      NORMAL  NO
OUT62            3.2604       NORMAL  NO
OUT63            27.5240      NORMAL  NO
OUT64            10.1051      NORMAL  NO
OUT65            3.4644       NORMAL  NO
OUT66            3.2064       NORMAL  NO
OUT67            4.5891       NORMAL  NO
OUT68            6.5175       NORMAL  NO
OUT69            6.7508       NORMAL  NO
OUT70            6.5712       NORMAL  NO
OUT71            3.8471       NORMAL  NO
OUT72            3.7059       NORMAL  NO
OUT73            19.3149      NORMAL  NO
OUT74            13.8121      NORMAL  NO
OUT75            4.6312       NORMAL  NO
OUT76            25.6773      NORMAL  NO
OUT77            2.2384       NORMAL  NO
OUT78            10.1505      NORMAL  NO
OUT79            19.0547      NORMAL  NO
OUT80            21.0202      NORMAL  NO
OUT81            16.9182      NORMAL  NO
OUT82            14.3302      NORMAL  NO
OUT83            43.9471      NORMAL  NO
OUT84            6.0200       NORMAL  NO
OUT85            3.4477       NORMAL  NO
OUT86            12.7901      NORMAL  NO
OUT87            6.7631       NORMAL  NO
OUT88            11.0871      NORMAL  NO
OUT89            3.1778       NORMAL  NO
OUT90            7.6358       NORMAL  NO
OUT91            7.1161       NORMAL  NO
OUT92            9.4989       NORMAL  NO
OUT93            4.5094       NORMAL  NO
OUT94            3.6442       NORMAL  NO
OUT95            3.0237       NORMAL  NO
OUT96            9.7957       NORMAL  NO
OUT97            19.0122      NORMAL  NO
OUT98            3.5558       NORMAL  NO
OUT99            11.7727      NORMAL  NO
OUT100           4.4335       NORMAL  NO
OUT101           4.9748       NORMAL  NO
OUT102           44.4454      NORMAL  NO
OUT103           3.1996       NORMAL  NO
OUT104           2.2174       NORMAL  NO
OUT105           7.6104       NORMAL  NO
OUT106           5.3771       NORMAL  NO
OUT107           10.5213      NORMAL  NO
OUT108           4.7409       NORMAL  NO
OUT109           4.6377       NORMAL  NO
OUT110           5.4808       NORMAL  NO
OUT111           4.9748       NORMAL  NO
OUT112           4.8289       NORMAL  NO
OUT113           4.9448       NORMAL  NO
OUT114           4.5505       NORMAL  NO
OUT115           4.3752       NORMAL  NO
OUT116           4.0057       NORMAL  NO
OUT117           4.7924       NORMAL  NO
OUT118           4.8802       NORMAL  NO
OUT119           4.8424       NORMAL  NO
OUT120           4.8806       NORMAL  NO
OUT121           4.8687       NORMAL  NO
OUT122           5.7155       NORMAL  NO
OUT123           7.5504       NORMAL  NO
OUT124           8.2358       NORMAL  NO
OUT125           6.1756       NORMAL  NO
OUT126           9.4097       NORMAL  NO
OUT127           32.9808      NORMAL  NO
OUT128           12.6984      NORMAL  NO
OUT129           10.2186      NORMAL  NO
OUT130           5.8187       NORMAL  NO
OUT131           5.9648       NORMAL  NO
OUT132           6.1204       NORMAL  NO
OUT133           3.6996       NORMAL  NO
OUT134           4.9749       NORMAL  NO
OUT135           8.6438       NORMAL  NO
OUT136           3.5217       NORMAL  NO
OUT137           4.0834       NORMAL  NO
OUT138           19.3436      NORMAL  NO
OUT139           23.0719      NORMAL  NO
OUT140           9.9587       NORMAL  NO
OUT141           8.1494       NORMAL  NO
OUT142           13.2557      NORMAL  NO
OUT143           9.1111       NORMAL  NO
OUT144           13.3347      NORMAL  NO
OUT145           20.6005      NORMAL  NO
OUT146           17.1238      NORMAL  NO
OUT147           21.8756      NORMAL  NO
OUT148           42.8656      NORMAL  NO
OUT149           2.9860       NORMAL  NO
OUT150           2.8810       NORMAL  NO
OUT151           26.5943      NORMAL  NO
OUT152           10.8655      NORMAL  NO
OUT153           11.7516      NORMAL  NO
OUT154           9.7249       NORMAL  NO
OUT155           7.5787       NORMAL  NO
OUT156           4.8276       NORMAL  NO
OUT157           10.7996      NORMAL  NO
OUT158           3.1043       NORMAL  NO
OUT159           3.0097       NORMAL  NO
OUT160           2.7536       NORMAL  NO
OUT161           21.9839      NORMAL  NO
OUT162           24.1855      NORMAL  NO
OUT163           20.0521      NORMAL  NO
OUT164           16.7990      NORMAL  NO
OUT165           21.8290      NORMAL  NO
OUT166           21.9032      NORMAL  NO
OUT167           22.7509      NORMAL  NO
OUT168           22.0485      NORMAL  NO
OUT169           28.8482      NORMAL  NO
OUT170           43.6664      NORMAL  NO
OUT171           4.4924       NORMAL  NO
OUT172           3.7560       NORMAL  NO
OUT173           3.3956       NORMAL  NO
OUT174           2.9431       NORMAL  NO
OUT175           3.7678       NORMAL  NO
OUT176           2.9277       NORMAL  NO
OUT177           2.1146       NORMAL  NO
OUT178           2.6835       NORMAL  NO
OUT179           48.1286      NORMAL  NO
OUT180           5.2370       NORMAL  NO
OUT181           3.6846       NORMAL  NO
OUT182           5.4440       NORMAL  NO
OUT183           3.5742       NORMAL  NO
OUT184           5.6254       NORMAL  NO
OUT185           1.4639       NORMAL  NO
OUT186           36.4363      NORMAL  NO
OUT187           20.7549      NORMAL  NO
OUT188           9.8284       NORMAL  NO
OUT189           42.6286      NORMAL  NO
OUT190           25.9986      NORMAL  NO
OUT191           43.4564      NORMAL  NO
OUT192           47.1744      NORMAL  NO
OUT193           25.1897      NORMAL  NO
OUT194           19.3331      NORMAL  NO
OUT195           19.4185      NORMAL  NO
OUT196           19.7645      NORMAL  NO
OUT197           18.9777      NORMAL  NO
OUT198           20.2090      NORMAL  NO
OUT199           19.1060      NORMAL  NO
OUT200           15.2921      NORMAL  NO
OUT201           4.7830       NORMAL  NO
OUT202           7.2248       NORMAL  NO
OUT203           46.0546      NORMAL  NO
OUT204           8.8078       NORMAL  NO
OUT205           14.0783      NORMAL  NO
OUT206           17.8977      NORMAL  NO
OUT207           18.8874      NORMAL  NO
OUT208           15.9882      NORMAL  NO
OUT209           16.0374      NORMAL  NO
OUT210           18.2890      NORMAL  NO
OUT211           24.4800      NORMAL  NO
OUT212           8.5379       NORMAL  NO
OUT213           7.6123       NORMAL  NO
OUT214           5.2017       NORMAL  NO
OUT215           6.4898       NORMAL  NO
OUT216           4.8098       NORMAL  NO
OUT217           4.3334       NORMAL  NO
OUT218           13.7707      NORMAL  NO
OUT219           9.9346       NORMAL  NO
OUT220           19.7088      NORMAL  NO
OUT221           3.7283       NORMAL  NO

[CONDUITS]
G00001           N00001           N00013           82.462     0.0130   0 0 0 0
G00002           N00002           N00063           89.443     0.0130   0 0 0 0
G00003           N00003           N00092           82.462     0.0130   0 0 0 0
G00004           N00004           N00109           63.246     0.0130   0 0 0 0
G00005           N00005           N00004           388.330    0.0130   0 0 0 0
G00006           N00006           N00102           72.111     0.0130   0 0 0 0
G00007           N00007           N01374           100.000    0.0130   0 0 0 0
G00008           N00008           N00007           444.072    0.0130   0 0 0 0
G00009           N00009           N00068           325.576    0.0130   0 0 0 0
G00010           N00010           N00011           120.000    0.0130   0 0 0 0
G00011           N00011           N01648           28.284     0.0130   0 0 0 0
G00012           N00012           N01648           100.000    0.0130   0 0 0 0
G00013           N00014           N01098           382.099    0.0130   0 0 0 0
G00014           N00015           N02314           82.462     0.0130   0 0 0 0
G00015           N00016           N01744           40.000     0.0130   0 0 0 0
G00016           N00017           N02318           44.721     0.0130   0 0 0 0
G00017           N00018           N00019           160.000    0.0130   0 0 0 0
G00018           N00019           N00305           100.000    0.0130   0 0 0 0
G00019           N00020           N01114           101.980    0.0130   0 0 0 0
G00020           N00021           N00020           113.137    0.0130   0 0 0 0
G00021           N00022           N00288           100.000    0.0130   0 0 0 0
G00022           N00023           N00024           80.000     0.0130   0 0 0 0
G00023           N00024           N00863           220.907    0.0130   0 0 0 0
G00024           N00025           N00991           184.391    0.0130   0 0 0 0
G00025           N00026           N02144           63.246     0.0130   0 0 0 0
G00026           N00027           N00979           44.721     0.0130   0 0 0 0
G00027           N00031           N00434           447.214    0.0130   0 0 0 0
G00028           N00032           N00031           164.924    0.0130   0 0 0 0
G00029           N00033           N00031           215.407    0.0130   0 0 0 0
G00030           N00034           N00852           56.569     0.0130   0 0 0 0
G00031           N00035           N00859           63.246     0.0130   0 0 0 0
G00032           N00036           N00860           89.443     0.0130   0 0 0 0
G00033           N00040           N00041           161.245    0.0130   0 0 0 0
G00034           N00041           N01114           63.246     0.0130   0 0 0 0
G00035           N00053           N01260           82.462     0.0130   0 0 0 0
G00036           N00054           N02022           100.000    0.0130   0 0 0 0
G00037           N00055           N00426           100.000    0.0130   0 0 0 0
G00038           N00056           N00057           460.000    0.0130   0 0 0 0
G00039           N00057           N02792           100.000    0.0130   0 0 0 0
G00040           N00063           N01645           89.443     0.0130   0 0 0 0
G00041           N00064           N00013           28.284     0.0130   0 0 0 0
G00042           N00065           N00066           181.108    0.0130   0 0 0 0
G00043           N00066           N01515           63.246     0.0130   0 0 0 0
G00044           N00067           N00011           100.000    0.0130   0 0 0 0
G00045           N00068           N00069           100.000    0.0130   0 0 0 0
G00046           N00069           N01373           40.000     0.0130   0 0 0 0
G00047           N00070           N02314           44.721     0.0130   0 0 0 0
G00048           N00071           N01100           84.853     0.0130   0 0 0 0
G00049           N00074           N00503           107.703    0.0130   0 0 0 0
G00050           N00075           N00074           126.491    0.0130   0 0 0 0
G00051           N00076           N02547           220.000    0.0130   0 0 0 0
G00052           N00083           N00084           184.391    0.0130   0 0 0 0
G00053           N00085           N00084           126.491    0.0130   0 0 0 0
G00054           N00086           N00085           44.721     0.0130   0 0 0 0
G00055           N00087           N00653           82.462     0.0130   0 0 0 0
G00056           N00088           N00089           178.885    0.0130   0 0 0 0
G00057           N00089           N00237           100.000    0.0130   0 0 0 0
G00058           N00090           N00093           82.462     0.0130   0 0 0 0
G00059           N00091           N00094           89.443     0.0130   0 0 0 0
G00060           N00092           N01395           80.000     0.0130   0 0 0 0
G00061           N00093           N00091           60.000     0.0130   0 0 0 0
G00062           N00094           N00097           40.000     0.0130   0 0 0 0
G00063           N00095           N00092           40.000     0.0130   0 0 0 0
G00064           N00097           N01396           100.000    0.0130   0 0 0 0
G00065           N00098           N00102           82.462     0.0130   0 0 0 0
G00066           N00099           N00100           490.306    0.0130   0 0 0 0
G00067           N00100           N00109           82.462     0.0130   0 0 0 0
G00068           N00101           N00122           44.721     0.0130   0 0 0 0
G00069           N00102           N00101           203.961    0.0130   0 0 0 0
G00070           N00103           N00122           100.000    0.0130   0 0 0 0
G00071           N00104           N01346           89.443     0.0130   0 0 0 0
G00072           N00105           N00104           121.655    0.0130   0 0 0 0
G00073           N00106           N01469           89.443     0.0130   0 0 0 0
G00074           N00107           N00160           82.462     0.0130   0 0 0 0
G00075           N00108           N00109           156.205    0.0130   0 0 0 0
G00076           N00109           N00106           100.000    0.0130   0 0 0 0
G00077           N00110           N01945           72.111     0.0130   0 0 0 0
G00078           N00111           N00125           161.245    0.0130   0 0 0 0
G00079           N00112           N00111           178.885    0.0130   0 0 0 0
G00080           N00113           N00177           89.443     0.0130   0 0 0 0
G00081           N00114           N00113           417.612    0.0130   0 0 0 0
G00082           N00115           N00114           107.703    0.0130   0 0 0 0
G00083           N00116           N00115           152.315    0.0130   0 0 0 0
G00084           N00117           N00148           260.000    0.0130   0 0 0 0
G00085           N00118           N00117           134.164    0.0130   0 0 0 0
G00086           N00122           N00123           141.421    0.0130   0 0 0 0
G00087           N00124           N00123           82.462     0.0130   0 0 0 0
G00088           N00126           N00125           184.391    0.0130   0 0 0 0
G00089           N00127           N02178           82.462     0.0130   0 0 0 0
G00090           N00128           N02181           89.443     0.0130   0 0 0 0
G00091           N00130           N02191           100.000    0.0130   0 0 0 0
G00092           N00131           N02191           44.721     0.0130   0 0 0 0
G00093           N00132           N01617           72.111     0.0130   0 0 0 0
G00094           N00133           N01631           100.000    0.0130   0 0 0 0
G00095           N00134           N00641           44.721     0.0130   0 0 0 0
G00096           N00135           N00641           84.853     0.0130   0 0 0 0
G00097           N00136           N01636           84.853     0.0130   0 0 0 0
G00098           N00137           N00643           63.246     0.0130   0 0 0 0
G00099           N00138           N01638           89.443     0.0130   0 0 0 0
G00100           N00139           N01637           82.462     0.0130   0 0 0 0
G00101           N00140           N01639           100.000    0.0130   0 0 0 0
G00102           N00141           N00638           80.000     0.0130   0 0 0 0
G00103           N00142           N00154           44.721     0.0130   0 0 0 0
G00104           N00143           N01460           63.246     0.0130   0 0 0 0
G00105           N00147           N00117           28.284     0.0130   0 0 0 0
G00106           N00148           N00149           398.497    0.0130   0 0 0 0
G00107           N00149           N00106           80.000     0.0130   0 0 0 0
G00108           N00150           N00105           100.000    0.0130   0 0 0 0
G00109           N00151           N00152           89.443     0.0130   0 0 0 0
G00110           N00152           N00153           116.619    0.0130   0 0 0 0
G00111           N00153           N01390           100.000    0.0130   0 0 0 0
G00112           N00154           N01465           72.111     0.0130   0 0 0 0
G00113           N00155           N00156           444.072    0.0130   0 0 0 0
G00114           N00156           N01460           63.246     0.0130   0 0 0 0
G00115           N00157           N00155           100.000    0.0130   0 0 0 0
G00116           N00158           N00159           424.264    0.0130   0 0 0 0
G00117           N00159           N00803           28.284     0.0130   0 0 0 0
G00118           N00160           N00108           89.443     0.0130   0 0 0 0
G00119           N00161           N00103           134.164    0.0130   0 0 0 0
G00120           N00162           N01461           56.569     0.0130   0 0 0 0
G00121           N00163           N00162           161.245    0.0130   0 0 0 0
G00122           N00164           N00166           60.000     0.0130   0 0 0 0
G00123           N00165           N00164           447.214    0.0130   0 0 0 0
G00124           N00167           N00180           100.000    0.0130   0 0 0 0
G00125           N00168           N00179           63.246     0.0130   0 0 0 0
G00126           N00169           N00168           284.253    0.0130   0 0 0 0
G00127           N00170           N01659           100.000    0.0130   0 0 0 0
G00128           N00171           N00191           63.246     0.0130   0 0 0 0
G00129           N00172           N02623           161.245    0.0130   0 0 0 0
G00130           N00173           N00175           56.569     0.0130   0 0 0 0
G00131           N00174           N01928           189.737    0.0130   0 0 0 0
G00132           N00176           N01344           82.462     0.0130   0 0 0 0
G00133           N00177           N00176           247.386    0.0130   0 0 0 0
G00134           N00178           N00179           121.655    0.0130   0 0 0 0
G00135           N00180           N00179           107.703    0.0130   0 0 0 0
G00136           N00181           N00179           82.462     0.0130   0 0 0 0
G00137           N00182           N01928           82.462     0.0130   0 0 0 0
G00138           N00183           N00184           161.245    0.0130   0 0 0 0
G00139           N00184           N00123           72.111     0.0130   0 0 0 0
G00140           N00185           N00123           84.853     0.0130   0 0 0 0
G00141           N00186           N01345           60.000     0.0130   0 0 0 0
G00142           N00187           N00171           100.000    0.0130   0 0 0 0
G00143           N00188           N00189           156.205    0.0130   0 0 0 0
G00144           N00189           N00179           89.443     0.0130   0 0 0 0
G00145           N00190           N00180           44.721     0.0130   0 0 0 0
G00146           N00191           N00192           63.246     0.0130   0 0 0 0
G00147           N00192           N00175           100.000    0.0130   0 0 0 0
G00148           N00193           N01928           40.000     0.0130   0 0 0 0
G00149           N00194           N00182           80.000     0.0130   0 0 0 0
G00150           N00195           N00817           100.000    0.0130   0 0 0 0
G00151           N00196           N01475           128.062    0.0130   0 0 0 0
G00152           N00197           N00196           216.333    0.0130   0 0 0 0
G00153           N00198           N01657           89.443     0.0130   0 0 0 0
G00154           N00199           N01656           84.853     0.0130   0 0 0 0
G00155           N00200           N00198           72.111     0.0130   0 0 0 0
G00156           N00201           N01340           84.853     0.0130   0 0 0 0
G00157           N00202           N00200           84.853     0.0130   0 0 0 0
G00158           N00203           N02654           72.111     0.0130   0 0 0 0
G00159           N00204           N00203           161.245    0.0130   0 0 0 0
G00160           N00205           N00206           421.900    0.0130   0 0 0 0
G00161           N00206           N02517           100.000    0.0130   0 0 0 0
G00162           N00208           N01657           44.721     0.0130   0 0 0 0
G00163           N00209           N01657           180.000    0.0130   0 0 0 0
G00164           N00210           N00202           89.443     0.0130   0 0 0 0
G00165           N00212           N00211           128.062    0.0130   0 0 0 0
G00166           N00213           N00652           63.246     0.0130   0 0 0 0
G00167           N00215           N00214           240.000    0.0130   0 0 0 0
G00168           N00216           N00217           220.907    0.0130   0 0 0 0
G00169           N00217           N01873           72.111     0.0130   0 0 0 0
G00170           N00218           N00251           100.000    0.0130   0 0 0 0
G00171           N00219           N00243           89.443     0.0130   0 0 0 0
G00172           N00220           N00219           421.900    0.0130   0 0 0 0
G00173           N00221           N00222           215.407    0.0130   0 0 0 0
G00174           N00222           N01928           60.000     0.0130   0 0 0 0
G00175           N00223           N00174           80.000     0.0130   0 0 0 0
G00176           N00224           N00195           100.000    0.0130   0 0 0 0
G00177           N00225           N00224           161.245    0.0130   0 0 0 0
G00178           N00226           N00225           420.476    0.0130   0 0 0 0
G00179           N00227           N00228           200.998    0.0130   0 0 0 0
G00180           N00228           N00251           89.443     0.0130   0 0 0 0
G00181           N00229           N01572           101.980    0.0130   0 0 0 0
G00182           N00232           N02495           60.000     0.0130   0 0 0 0
G00183           N00233           N02495           80.000     0.0130   0 0 0 0
G00184           N00234           N02432           63.246     0.0130   0 0 0 0
G00185           N00235           N00236           121.655    0.0130   0 0 0 0
G00186           N00236           N00237           215.407    0.0130   0 0 0 0
G00187           N00237           N00211           63.246     0.0130   0 0 0 0
G00188           N00238           N00239           178.885    0.0130   0 0 0 0
G00189           N00239           N00251           72.111     0.0130   0 0 0 0
G00190           N00240           N00214           63.246     0.0130   0 0 0 0
G00191           N00241           N00822           72.111     0.0130   0 0 0 0
G00192           N00242           N00243           80.000     0.0130   0 0 0 0
G00193           N00244           N00241           100.000    0.0130   0 0 0 0
G00194           N00245           N01538           56.569     0.0130   0 0 0 0
G00195           N00246           N00240           56.569     0.0130   0 0 0 0
G00196           N00247           N00251           100.000    0.0130   0 0 0 0
G00197           N00248           N00214           44.721     0.0130   0 0 0 0
G00198           N00249           N00245           84.853     0.0130   0 0 0 0
G00199           N00250           N00245           89.443     0.0130   0 0 0 0
G00200           N00252           N00251           196.977    0.0130   0 0 0 0
G00201           N00253           N02388           72.111     0.0130   0 0 0 0
G00202           N00254           N00268           220.907    0.0130   0 0 0 0
G00203           N00255           N00254           89.443     0.0130   0 0 0 0
G00204           N00256           N00229           63.246     0.0130   0 0 0 0
G00205           N00257           N00266           82.462     0.0130   0 0 0 0
G00206           N00258           N00268           28.284     0.0130   0 0 0 0
G00207           N00259           N01572           44.721     0.0130   0 0 0 0
G00208           N00260           N00267           100.000    0.0130   0 0 0 0
G00209           N00261           N00269           84.853     0.0130   0 0 0 0
G00210           N00262           N00674           44.721     0.0130   0 0 0 0
G00211           N00263           N00265           100.000    0.0130   0 0 0 0
G00212           N00264           N00259           56.569     0.0130   0 0 0 0
G00213           N00265           N00266           164.924    0.0130   0 0 0 0
G00214           N00267           N00268           220.000    0.0130   0 0 0 0
G00215           N00269           N00266           89.443     0.0130   0 0 0 0
G00216           N00270           N00269           180.000    0.0130   0 0 0 0
G00217           N00271           N01493           44.721     0.0130   0 0 0 0
G00218           N00272           N00677           100.000    0.0130   0 0 0 0
G00219           N00273           N01554           60.000     0.0130   0 0 0 0
G00220           N00274           N00831           44.721     0.0130   0 0 0 0
G00221           N00275           N01039           72.111     0.0130   0 0 0 0
G00222           N00276           N00278           247.386    0.0130   0 0 0 0
G00223           N00277           N01554           82.462     0.0130   0 0 0 0
G00224           N00278           N01119           82.462     0.0130   0 0 0 0
G00225           N00279           N01690           100.000    0.0130   0 0 0 0
G00226           N00280           N00281           141.421    0.0130   0 0 0 0
G00227           N00281           N00298           80.000     0.0130   0 0 0 0
G00228           N00282           N00283           89.443     0.0130   0 0 0 0
G00229           N00283           N01037           100.000    0.0130   0 0 0 0
G00230           N00284           N01355           82.462     0.0130   0 0 0 0
G00231           N00285           N00284           184.391    0.0130   0 0 0 0
G00232           N00286           N01450           82.462     0.0130   0 0 0 0
G00233           N00287           N00286           184.391    0.0130   0 0 0 0
G00234           N00288           N00286           220.000    0.0130   0 0 0 0
G00235           N00289           N01036           60.000     0.0130   0 0 0 0
G00236           N00290           N01711           100.000    0.0130   0 0 0 0
G00237           N00291           N00303           63.246     0.0130   0 0 0 0
G00238           N00292           N01436           63.246     0.0130   0 0 0 0
G00239           N00294           N01115           101.980    0.0130   0 0 0 0
G00240           N00295           N01440           89.443     0.0130   0 0 0 0
G00241           N00296           N00290           63.246     0.0130   0 0 0 0
G00242           N00297           N00295           141.421    0.0130   0 0 0 0
G00243           N00299           N00298           160.000    0.0130   0 0 0 0
G00244           N00300           N00299           180.000    0.0130   0 0 0 0
G00245           N00301           N00298           44.721     0.0130   0 0 0 0
G00246           N00302           N00301           89.443     0.0130   0 0 0 0
G00247           N00303           N01453           84.853     0.0130   0 0 0 0
G00248           N00304           N00299           60.000     0.0130   0 0 0 0
G00249           N00305           N01113           28.284     0.0130   0 0 0 0
G00250           N00306           N01115           100.000    0.0130   0 0 0 0
G00251           N00307           N00298           40.000     0.0130   0 0 0 0
G00252           N00308           N01433           89.443     0.0130   0 0 0 0
G00253           N00309           N00298           60.000     0.0130   0 0 0 0
G00254           N00310           N00300           100.000    0.0130   0 0 0 0
G00255           N00311           N01797           89.443     0.0130   0 0 0 0
G00256           N00312           N00713           160.000    0.0130   0 0 0 0
G00257           N00313           N00791           28.284     0.0130   0 0 0 0
G00258           N00314           N01335           44.721     0.0130   0 0 0 0
G00259           N00315           N01278           164.924    0.0130   0 0 0 0
G00260           N00316           N00317           161.245    0.0130   0 0 0 0
G00261           N00317           N00318           134.164    0.0130   0 0 0 0
G00262           N00318           N01276           260.768    0.0130   0 0 0 0
G00263           N00319           N00720           72.111     0.0130   0 0 0 0
G00264           N00320           N00321           161.245    0.0130   0 0 0 0
G00265           N00321           N00322           184.391    0.0130   0 0 0 0
G00266           N00322           N00323           181.108    0.0130   0 0 0 0
G00267           N00323           N02642           189.737    0.0130   0 0 0 0
G00268           N00324           N01275           60.000     0.0130   0 0 0 0
G00269           N00325           N00016           220.000    0.0130   0 0 0 0
G00270           N00327           N00326           89.443     0.0130   0 0 0 0
G00271           N00328           N00329           164.924    0.0130   0 0 0 0
G00272           N00329           N01488           63.246     0.0130   0 0 0 0
G00273           N00330           N02802           28.284     0.0130   0 0 0 0
G00274           N00331           N02802           89.443     0.0130   0 0 0 0
G00275           N00332           N02753           44.721     0.0130   0 0 0 0
G00276           N00333           N00334           200.998    0.0130   0 0 0 0
G00277           N00334           N01031           89.443     0.0130   0 0 0 0
G00278           N00335           N00336           240.000    0.0130   0 0 0 0
G00279           N00336           N02816           100.000    0.0130   0 0 0 0
G00280           N00337           N00334           60.000     0.0130   0 0 0 0
G00281           N00338           N02753           40.000     0.0130   0 0 0 0
G00282           N00339           N00340           145.602    0.0130   0 0 0 0
G00283           N00341           N00354           72.111     0.0130   0 0 0 0
G00284           N00342           N00343           40.000     0.0130   0 0 0 0
G00285           N00343           N00366           44.721     0.0130   0 0 0 0
G00286           N00344           N00343           152.315    0.0130   0 0 0 0
G00287           N00345           N02603           72.111     0.0130   0 0 0 0
G00288           N00346           N01761           120.000    0.0130   0 0 0 0
G00289           N00347           N00340           60.000     0.0130   0 0 0 0
G00290           N00348           N00340           100.000    0.0130   0 0 0 0
G00291           N00349           N00339           100.000    0.0130   0 0 0 0
G00292           N00350           N00342           89.443     0.0130   0 0 0 0
G00293           N00351           N00350           80.000     0.0130   0 0 0 0
G00294           N00352           N00340           100.000    0.0130   0 0 0 0
G00295           N00353           N00348           80.000     0.0130   0 0 0 0
G00296           N00354           N01519           89.443     0.0130   0 0 0 0
G00297           N00355           N00362           164.924    0.0130   0 0 0 0
G00298           N00356           N02714           63.246     0.0130   0 0 0 0
G00299           N00357           N00358           161.245    0.0130   0 0 0 0
G00300           N00358           N00330           100.000    0.0130   0 0 0 0
G00301           N00359           N00365           80.000     0.0130   0 0 0 0
G00302           N00360           N00366           82.462     0.0130   0 0 0 0
G00303           N00361           N02714           80.000     0.0130   0 0 0 0
G00304           N00362           N00979           40.000     0.0130   0 0 0 0
G00305           N00363           N00354           100.000    0.0130   0 0 0 0
G00306           N00364           N00339           82.462     0.0130   0 0 0 0
G00307           N00365           N01621           161.245    0.0130   0 0 0 0
G00308           N00366           N00365           156.205    0.0130   0 0 0 0
G00309           N00367           N01012           60.000     0.0130   0 0 0 0
G00310           N00368           N02539           72.111     0.0130   0 0 0 0
G00311           N00369           N00370           169.706    0.0130   0 0 0 0
G00312           N00370           N00371           84.853     0.0130   0 0 0 0
G00313           N00371           N00372           84.853     0.0130   0 0 0 0
G00314           N00372           N00653           72.111     0.0130   0 0 0 0
G00315           N00373           N00653           72.111     0.0130   0 0 0 0
G00316           N00374           N00651           44.721     0.0130   0 0 0 0
G00317           N00375           N00399           89.443     0.0130   0 0 0 0
G00318           N00376           N00071           28.284     0.0130   0 0 0 0
G00319           N00377           N00384           116.619    0.0130   0 0 0 0
G00320           N00378           N02540           89.443     0.0130   0 0 0 0
G00321           N00379           N01013           72.111     0.0130   0 0 0 0
G00322           N00380           N01082           100.000    0.0130   0 0 0 0
G00323           N00381           N00380           161.245    0.0130   0 0 0 0
G00324           N00382           N00380           300.000    0.0130   0 0 0 0
G00325           N00383           N02311           180.000    0.0130   0 0 0 0
G00326           N00385           N00384           101.980    0.0130   0 0 0 0
G00327           N00386           N00399           44.721     0.0130   0 0 0 0
G00328           N00387           N01125           184.391    0.0130   0 0 0 0
G00329           N00388           N00389           101.980    0.0130   0 0 0 0
G00330           N00389           N01125           56.569     0.0130   0 0 0 0
G00331           N00390           N00395           82.462     0.0130   0 0 0 0
G00332           N00391           N00390           116.619    0.0130   0 0 0 0
G00333           N00392           N00393           300.000    0.0130   0 0 0 0
G00334           N00393           N00398           100.000    0.0130   0 0 0 0
G00335           N00394           N02318           44.721     0.0130   0 0 0 0
G00336           N00395           N00385           63.246     0.0130   0 0 0 0
G00337           N00396           N00014           100.000    0.0130   0 0 0 0
G00338           N00397           N00395           72.111     0.0130   0 0 0 0
G00339           N00398           N00399           269.072    0.0130   0 0 0 0
G00340           N00399           N00384           84.853     0.0130   0 0 0 0
G00341           N00400           N02354           63.246     0.0130   0 0 0 0
G00342           N00401           N02354           63.246     0.0130   0 0 0 0
G00343           N00402           N00933           161.245    0.0130   0 0 0 0
G00344           N00403           N00787           63.246     0.0130   0 0 0 0
G00345           N00404           N02354           72.111     0.0130   0 0 0 0
G00346           N00405           N01618           184.391    0.0130   0 0 0 0
G00347           N00406           N00904           82.462     0.0130   0 0 0 0
G00348           N00408           N01329           63.246     0.0130   0 0 0 0
G00349           N00409           N00408           113.137    0.0130   0 0 0 0
G00350           N00410           N01329           60.000     0.0130   0 0 0 0
G00351           N00411           N00410           140.000    0.0130   0 0 0 0
G00352           N00413           N01420           63.246     0.0130   0 0 0 0
G00353           N00414           N01818           60.000     0.0130   0 0 0 0
G00354           N00415           N01831           80.000     0.0130   0 0 0 0
G00355           N00416           N01449           44.721     0.0130   0 0 0 0
G00356           N00422           N00787           56.569     0.0130   0 0 0 0
G00357           N00423           N01253           100.000    0.0130   0 0 0 0
G00358           N00424           N00450           20.000     0.0130   0 0 0 0
G00359           N00426           N00450           80.000     0.0130   0 0 0 0
G00360           N00427           N01253           89.443     0.0130   0 0 0 0
G00361           N00428           N00455           100.000    0.0130   0 0 0 0
G00362           N00429           N00442           56.569     0.0130   0 0 0 0
G00363           N00430           N00429           121.655    0.0130   0 0 0 0
G00364           N00431           N00446           161.245    0.0130   0 0 0 0
G00365           N00432           N00409           28.284     0.0130   0 0 0 0
G00366           N00433           N00567           140.000    0.0130   0 0 0 0
G00367           N00434           N00571           28.284     0.0130   0 0 0 0
G00368           N00435           N00437           141.421    0.0130   0 0 0 0
G00369           N00436           N00431           172.047    0.0130   0 0 0 0
G00370           N00437           N00438           220.907    0.0130   0 0 0 0
G00371           N00438           N02109           140.000    0.0130   0 0 0 0
G00372           N00439           N00438           144.222    0.0130   0 0 0 0
G00373           N00440           N00438           181.108    0.0130   0 0 0 0
G00374           N00441           N00442           161.245    0.0130   0 0 0 0
G00375           N00443           N00442           144.222    0.0130   0 0 0 0
G00376           N00444           N00441           160.000    0.0130   0 0 0 0
G00377           N00445           N00444           240.832    0.0130   0 0 0 0
G00378           N00446           N00572           28.284     0.0130   0 0 0 0
G00379           N00449           N00450           184.391    0.0130   0 0 0 0
G00380           N00451           N00450           82.462     0.0130   0 0 0 0
G00381           N00452           N00451           82.462     0.0130   0 0 0 0
G00382           N00453           N00454           82.462     0.0130   0 0 0 0
G00383           N00455           N00425           84.853     0.0130   0 0 0 0
G00384           N00456           N02502           63.246     0.0130   0 0 0 0
G00385           N00457           N02502           72.111     0.0130   0 0 0 0
G00386           N00458           N00457           280.713    0.0130   0 0 0 0
G00387           N00480           N00500           56.569     0.0130   0 0 0 0
G00388           N00481           N00482           101.980    0.0130   0 0 0 0
G00389           N00482           N00480           84.853     0.0130   0 0 0 0
G00390           N00483           N00482           161.245    0.0130   0 0 0 0
G00391           N00484           N00496           72.111     0.0130   0 0 0 0
G00392           N00485           N00484           107.703    0.0130   0 0 0 0
G00393           N00486           N00484           60.000     0.0130   0 0 0 0
G00394           N00487           N02024           89.443     0.0130   0 0 0 0
G00395           N00488           N01582           89.443     0.0130   0 0 0 0
G00396           N00489           N02022           89.443     0.0130   0 0 0 0
G00397           N00490           N00496           72.111     0.0130   0 0 0 0
G00398           N00491           N00492           84.853     0.0130   0 0 0 0
G00399           N00492           N00496           82.462     0.0130   0 0 0 0
G00400           N00493           N00494           160.000    0.0130   0 0 0 0
G00401           N00495           N00484           82.462     0.0130   0 0 0 0
G00402           N00497           N00496           161.245    0.0130   0 0 0 0
G00403           N00498           N00499           134.164    0.0130   0 0 0 0
G00404           N00499           N00484           100.000    0.0130   0 0 0 0
G00405           N00501           N00500           82.462     0.0130   0 0 0 0
G00406           N00502           N00496           121.655    0.0130   0 0 0 0
G00407           N00503           N00504           184.391    0.0130   0 0 0 0
G00408           N00504           N00498           80.000     0.0130   0 0 0 0
G00409           N00505           N00494           72.111     0.0130   0 0 0 0
G00410           N00506           N00507           164.924    0.0130   0 0 0 0
G00411           N00507           N00496           28.284     0.0130   0 0 0 0
G00412           N00508           N00484           72.111     0.0130   0 0 0 0
G00413           N00509           N00490           82.462     0.0130   0 0 0 0
G00414           N00510           N00492           89.443     0.0130   0 0 0 0
G00415           N00511           N00496           80.000     0.0130   0 0 0 0
G00416           N00512           N00495           100.000    0.0130   0 0 0 0
G00417           N00513           N00493           40.000     0.0130   0 0 0 0
G00418           N00514           N00513           181.108    0.0130   0 0 0 0
G00419           N00515           N00513           282.843    0.0130   0 0 0 0
G00420           N00525           N00515           63.246     0.0130   0 0 0 0
G00421           N00530           N02164           72.111     0.0130   0 0 0 0
G00422           N00531           N02724           28.284     0.0130   0 0 0 0
G00423           N00532           N00531           228.035    0.0130   0 0 0 0
G00424           N00533           N00531           172.047    0.0130   0 0 0 0
G00425           N00534           N00533           256.125    0.0130   0 0 0 0
G00426           N00535           N00534           288.444    0.0130   0 0 0 0
G00427           N00536           N02157           82.462     0.0130   0 0 0 0
G00428           N00537           N02157           107.703    0.0130   0 0 0 0
G00429           N00538           N00424           89.443     0.0130   0 0 0 0
G00430           N00539           N02465           20.000     0.0130   0 0 0 0
G00431           N00540           N00854           89.443     0.0130   0 0 0 0
G00432           N00541           N00540           228.035    0.0130   0 0 0 0
G00433           N00542           N00549           100.000    0.0130   0 0 0 0
G00434           N00545           N00056           44.721     0.0130   0 0 0 0
G00435           N00546           N00547           141.421    0.0130   0 0 0 0
G00436           N00547           N02122           100.000    0.0130   0 0 0 0
G00437           N00548           N00426           56.569     0.0130   0 0 0 0
G00438           N00549           N00425           100.000    0.0130   0 0 0 0
G00439           N00550           N01072           100.000    0.0130   0 0 0 0
G00440           N00551           N00550           212.603    0.0130   0 0 0 0
G00441           N00552           N00551           256.125    0.0130   0 0 0 0
G00442           N00553           N01002           72.111     0.0130   0 0 0 0
G00443           N00554           N00458           89.443     0.0130   0 0 0 0
G00444           N00555           N00456           80.000     0.0130   0 0 0 0
G00445           N00556           N01531           44.721     0.0130   0 0 0 0
G00446           N00565           N02166           56.569     0.0130   0 0 0 0
G00447           N00566           N02162           72.111     0.0130   0 0 0 0
G00448           N00567           N00411           89.443     0.0130   0 0 0 0
G00449           N00568           N00569           80.000     0.0130   0 0 0 0
G00450           N00569           N00570           121.655    0.0130   0 0 0 0
G00451           N00570           N01505           100.000    0.0130   0 0 0 0
G00452           N00571           N01328           121.655    0.0130   0 0 0 0
G00453           N00572           N00408           100.000    0.0130   0 0 0 0
G00454           N00573           N00574           152.315    0.0130   0 0 0 0
G00455           N00575           N01147           101.980    0.0130   0 0 0 0
G00456           N00585           N00587           184.391    0.0130   0 0 0 0
G00457           N00586           N01533           89.443     0.0130   0 0 0 0
G00458           N00587           N00588           107.703    0.0130   0 0 0 0
G00459           N00589           N01510           169.706    0.0130   0 0 0 0
G00460           N00590           N00589           160.000    0.0130   0 0 0 0
G00461           N00591           N01535           72.111     0.0130   0 0 0 0
G00462           N00592           N00770           56.569     0.0130   0 0 0 0
G00463           N00596           N00585           63.246     0.0130   0 0 0 0
G00464           N00597           N01594           100.000    0.0130   0 0 0 0
G00465           N00600           N02100           161.245    0.0130   0 0 0 0
G00466           N00602           N00600           197.990    0.0130   0 0 0 0
G00467           N00603           N01588           89.443     0.0130   0 0 0 0
G00468           N00604           N02528           100.000    0.0130   0 0 0 0
G00469           N00605           N00604           169.706    0.0130   0 0 0 0
G00470           N00606           N00779           72.111     0.0130   0 0 0 0
G00471           N00607           N00606           240.000    0.0130   0 0 0 0
G00472           N00608           N00609           223.607    0.0130   0 0 0 0
G00473           N00609           N00610           126.491    0.0130   0 0 0 0
G00474           N00610           N00611           152.315    0.0130   0 0 0 0
G00475           N00611           N00929           40.000     0.0130   0 0 0 0
G00476           N00612           N02775           44.721     0.0130   0 0 0 0
G00477           N00614           N02775           200.998    0.0130   0 0 0 0
G00478           N00615           N00614           160.000    0.0130   0 0 0 0
G00479           N00616           N01587           56.569     0.0130   0 0 0 0
G00480           N00617           N00618           200.998    0.0130   0 0 0 0
G00481           N00618           N02098           60.000     0.0130   0 0 0 0
G00482           N00619           N01317           72.111     0.0130   0 0 0 0
G00483           N00620           N00619           161.245    0.0130   0 0 0 0
G00484           N00621           N00387           44.721     0.0130   0 0 0 0
G00485           N00622           N01610           72.111     0.0130   0 0 0 0
G00486           N00623           N01126           82.462     0.0130   0 0 0 0
G00487           N00624           N01012           72.111     0.0130   0 0 0 0
G00488           N00625           N01013           82.462     0.0130   0 0 0 0
G00489           N00626           N01611           82.462     0.0130   0 0 0 0
G00490           N00627           N01126           89.443     0.0130   0 0 0 0
G00491           N00628           N00387           80.000     0.0130   0 0 0 0
G00492           N00629           N00654           60.000     0.0130   0 0 0 0
G00493           N00630           N00632           101.980    0.0130   0 0 0 0
G00494           N00631           N00635           100.000    0.0130   0 0 0 0
G00495           N00632           N02433           63.246     0.0130   0 0 0 0
G00496           N00633           N00237           40.000     0.0130   0 0 0 0
G00497           N00634           N01164           161.245    0.0130   0 0 0 0
G00498           N00635           N02495           100.000    0.0130   0 0 0 0
G00499           N00636           N02433           28.284     0.0130   0 0 0 0
G00500           N00637           N02433           20.000     0.0130   0 0 0 0
G00501           N00638           N02495           40.000     0.0130   0 0 0 0
G00502           N00639           N02495           80.000     0.0130   0 0 0 0
G00503           N00640           N00646           63.246     0.0130   0 0 0 0
G00504           N00641           N00642           164.924    0.0130   0 0 0 0
G00505           N00642           N01249           82.462     0.0130   0 0 0 0
G00506           N00643           N01249           84.853     0.0130   0 0 0 0
G00507           N00644           N00645           161.245    0.0130   0 0 0 0
G00508           N00645           N01637           28.284     0.0130   0 0 0 0
G00509           N00646           N01639           63.246     0.0130   0 0 0 0
G00510           N00647           N01615           82.462     0.0130   0 0 0 0
G00511           N00648           N02433           82.462     0.0130   0 0 0 0
G00512           N00649           N02432           44.721     0.0130   0 0 0 0
G00513           N00650           N00237           44.721     0.0130   0 0 0 0
G00514           N00651           N00650           128.062    0.0130   0 0 0 0
G00515           N00652           N00651           116.619    0.0130   0 0 0 0
G00516           N00654           N00237           189.737    0.0130   0 0 0 0
G00517           N00655           N00233           300.666    0.0130   0 0 0 0
G00518           N00656           N01163           140.000    0.0130   0 0 0 0
G00519           N00659           N00660           121.655    0.0130   0 0 0 0
G00520           N00660           N02175           40.000     0.0130   0 0 0 0
G00521           N00661           N00660           116.619    0.0130   0 0 0 0
G00522           N00664           N00669           160.000    0.0130   0 0 0 0
G00523           N00665           N00664           141.421    0.0130   0 0 0 0
G00524           N00668           N00429           200.998    0.0130   0 0 0 0
G00525           N00669           N01503           63.246     0.0130   0 0 0 0
G00526           N00670           N00927           63.246     0.0130   0 0 0 0
G00527           N00671           N00670           252.982    0.0130   0 0 0 0
G00528           N00672           N00611           228.035    0.0130   0 0 0 0
G00529           N00673           N02427           63.246     0.0130   0 0 0 0
G00530           N00674           N00268           40.000     0.0130   0 0 0 0
G00531           N00675           N00674           141.421    0.0130   0 0 0 0
G00532           N00676           N01873           60.000     0.0130   0 0 0 0
G00533           N00677           N01555           100.000    0.0130   0 0 0 0
G00534           N00679           N00831           89.443     0.0130   0 0 0 0
G00535           N00680           N00323           84.853     0.0130   0 0 0 0
G00536           N00681           N00682           272.029    0.0130   0 0 0 0
G00537           N00683           N00684           240.832    0.0130   0 0 0 0
G00538           N00684           N01342           82.462     0.0130   0 0 0 0
G00539           N00685           N01561           82.462     0.0130   0 0 0 0
G00540           N00686           N00685           164.924    0.0130   0 0 0 0
G00541           N00687           N01561           80.000     0.0130   0 0 0 0
G00542           N00688           N00689           200.998    0.0130   0 0 0 0
G00543           N00689           N01971           160.000    0.0130   0 0 0 0
G00544           N00690           N02686           44.721     0.0130   0 0 0 0
G00545           N00691           N00696           340.000    0.0130   0 0 0 0
G00546           N00692           N01656           164.924    0.0130   0 0 0 0
G00547           N00693           N00692           145.602    0.0130   0 0 0 0
G00548           N00694           N00693           280.713    0.0130   0 0 0 0
G00549           N00695           N02689           72.111     0.0130   0 0 0 0
G00550           N00696           N02687           126.491    0.0130   0 0 0 0
G00551           N00697           N02687           40.000     0.0130   0 0 0 0
G00552           N00698           N00711           80.000     0.0130   0 0 0 0
G00553           N00699           N00711           60.000     0.0130   0 0 0 0
G00554           N00700           N01284           82.462     0.0130   0 0 0 0
G00555           N00701           N00702           188.680    0.0130   0 0 0 0
G00556           N00702           N00703           161.245    0.0130   0 0 0 0
G00557           N00703           N00704           89.443     0.0130   0 0 0 0
G00558           N00704           N01412           134.164    0.0130   0 0 0 0
G00559           N00705           N01588           44.721     0.0130   0 0 0 0
G00560           N00706           N00312           89.443     0.0130   0 0 0 0
G00561           N00707           N00494           116.619    0.0130   0 0 0 0
G00562           N00708           N02050           82.462     0.0130   0 0 0 0
G00563           N00709           N00708           233.238    0.0130   0 0 0 0
G00564           N00710           N00709           134.164    0.0130   0 0 0 0
G00565           N00713           N01364           82.462     0.0130   0 0 0 0
G00566           N00714           N00723           89.443     0.0130   0 0 0 0
G00567           N00717           N00318           100.000    0.0130   0 0 0 0
G00568           N00718           N00714           60.000     0.0130   0 0 0 0
G00569           N00720           N00701           241.661    0.0130   0 0 0 0
G00570           N00721           N01588           44.721     0.0130   0 0 0 0
G00571           N00722           N00710           161.245    0.0130   0 0 0 0
G00572           N00723           N00722           205.913    0.0130   0 0 0 0
G00573           N00724           N01318           220.000    0.0130   0 0 0 0
G00574           N00726           N01318           60.000     0.0130   0 0 0 0
G00575           N00727           N01317           28.284     0.0130   0 0 0 0
G00576           N00740           N00532           84.853     0.0130   0 0 0 0
G00577           N00745           N00744           180.000    0.0130   0 0 0 0
G00578           N00769           N00770           220.907    0.0130   0 0 0 0
G00579           N00773           N00604           63.246     0.0130   0 0 0 0
G00580           N00774           N02556           200.000    0.0130   0 0 0 0
G00581           N00775           N01586           44.721     0.0130   0 0 0 0
G00582           N00776           N00775           240.832    0.0130   0 0 0 0
G00583           N00777           N00605           40.000     0.0130   0 0 0 0
G00584           N00778           N01057           63.246     0.0130   0 0 0 0
G00585           N00779           N01052           63.246     0.0130   0 0 0 0
G00586           N00780           N00494           72.111     0.0130   0 0 0 0
G00587           N00782           N00783           161.245    0.0130   0 0 0 0
G00588           N00783           N00784           266.833    0.0130   0 0 0 0
G00589           N00784           N00929           82.462     0.0130   0 0 0 0
G00590           N00786           N00833           82.462     0.0130   0 0 0 0
G00591           N00792           N01345           141.421    0.0130   0 0 0 0
G00592           N00794           N00795           181.108    0.0130   0 0 0 0
G00593           N00795           N01344           89.443     0.0130   0 0 0 0
G00594           N00796           N01348           60.000     0.0130   0 0 0 0
G00595           N00797           N00798           181.108    0.0130   0 0 0 0
G00596           N00798           N01269           20.000     0.0130   0 0 0 0
G00597           N00799           N01940           72.111     0.0130   0 0 0 0
G00598           N00800           N01943           164.924    0.0130   0 0 0 0
G00599           N00802           N00801           82.462     0.0130   0 0 0 0
G00600           N00803           N00800           100.000    0.0130   0 0 0 0
G00601           N00806           N00900           28.284     0.0130   0 0 0 0
G00602           N00808           N01484           60.000     0.0130   0 0 0 0
G00603           N00809           N00810           145.602    0.0130   0 0 0 0
G00604           N00810           N02392           72.111     0.0130   0 0 0 0
G00605           N00811           N00810           164.924    0.0130   0 0 0 0
G00606           N00812           N00811           180.000    0.0130   0 0 0 0
G00607           N00813           N00814           161.245    0.0130   0 0 0 0
G00608           N00814           N00221           101.980    0.0130   0 0 0 0
G00609           N00815           N00823           101.980    0.0130   0 0 0 0
G00610           N00816           N00817           161.245    0.0130   0 0 0 0
G00611           N00817           N00221           28.284     0.0130   0 0 0 0
G00612           N00818           N00819           20.000     0.0130   0 0 0 0
G00613           N00819           N00820           181.108    0.0130   0 0 0 0
G00614           N00820           N00241           84.853     0.0130   0 0 0 0
G00615           N00821           N01541           72.111     0.0130   0 0 0 0
G00616           N00823           N00822           144.222    0.0130   0 0 0 0
G00617           N00824           N01876           60.000     0.0130   0 0 0 0
G00618           N00825           N00824           203.961    0.0130   0 0 0 0
G00619           N00826           N01881           234.094    0.0130   0 0 0 0
G00620           N00827           N01876           100.000    0.0130   0 0 0 0
G00621           N00828           N01940           89.443     0.0130   0 0 0 0
G00622           N00830           N00831           72.111     0.0130   0 0 0 0
G00623           N00831           N00277           161.245    0.0130   0 0 0 0
G00624           N00833           N01384           226.274    0.0130   0 0 0 0
G00625           N00834           N01383           89.443     0.0130   0 0 0 0
G00626           N00835           N01351           100.000    0.0130   0 0 0 0
G00627           N00836           N01382           100.000    0.0130   0 0 0 0
G00628           N00848           N02244           126.491    0.0130   0 0 0 0
G00629           N00849           N00481           89.443     0.0130   0 0 0 0
G00630           N00850           N00985           63.246     0.0130   0 0 0 0
G00631           N00852           N02280           82.462     0.0130   0 0 0 0
G00632           N00853           N00850           72.111     0.0130   0 0 0 0
G00633           N00854           N00855           215.407    0.0130   0 0 0 0
G00634           N00856           N02017           63.246     0.0130   0 0 0 0
G00635           N00857           N02502           100.000    0.0130   0 0 0 0
G00636           N00858           N00855           189.737    0.0130   0 0 0 0
G00637           N00859           N00861           203.961    0.0130   0 0 0 0
G00638           N00860           N00861           28.284     0.0130   0 0 0 0
G00639           N00863           N00864           184.391    0.0130   0 0 0 0
G00640           N00864           N00865           145.602    0.0130   0 0 0 0
G00641           N00865           N01330           100.000    0.0130   0 0 0 0
G00642           N00869           N01617           89.443     0.0130   0 0 0 0
G00643           N00870           N02618           188.680    0.0130   0 0 0 0
G00644           N00871           N00787           100.000    0.0130   0 0 0 0
G00645           N00872           N00084           72.111     0.0130   0 0 0 0
G00646           N00875           N00876           223.607    0.0130   0 0 0 0
G00647           N00876           N01868           44.721     0.0130   0 0 0 0
G00648           N00877           N00878           164.924    0.0130   0 0 0 0
G00649           N00878           N00882           28.284     0.0130   0 0 0 0
G00650           N00879           N02088           63.246     0.0130   0 0 0 0
G00651           N00882           N01549           20.000     0.0130   0 0 0 0
G00652           N00888           N01548           84.853     0.0130   0 0 0 0
G00653           N00889           N00882           164.924    0.0130   0 0 0 0
G00654           N00890           N00889           160.000    0.0130   0 0 0 0
G00655           N00891           N01454           100.000    0.0130   0 0 0 0
G00656           N00894           N00892           100.000    0.0130   0 0 0 0
G00657           N00901           N02388           56.569     0.0130   0 0 0 0
G00658           N00902           N02494           84.853     0.0130   0 0 0 0
G00659           N00903           N00902           216.333    0.0130   0 0 0 0
G00660           N00904           N00903           134.164    0.0130   0 0 0 0
G00661           N00905           N00904           152.315    0.0130   0 0 0 0
G00662           N00906           N00907           120.000    0.0130   0 0 0 0
G00663           N00907           N02352           89.443     0.0130   0 0 0 0
G00664           N00908           N01718           220.907    0.0130   0 0 0 0
G00665           N00909           N01711           44.721     0.0130   0 0 0 0
G00666           N00911           N01176           134.164    0.0130   0 0 0 0
G00667           N00914           N00915           28.284     0.0130   0 0 0 0
G00668           N00915           N00916           140.000    0.0130   0 0 0 0
G00669           N00917           N00914           100.000    0.0130   0 0 0 0
G00670           N00918           N00917           161.245    0.0130   0 0 0 0
G00671           N00919           N00915           60.000     0.0130   0 0 0 0
G00672           N00920           N00918           44.721     0.0130   0 0 0 0
G00673           N00921           N00923           364.966    0.0130   0 0 0 0
G00674           N00922           N00915           72.111     0.0130   0 0 0 0
G00675           N00923           N00924           82.462     0.0130   0 0 0 0
G00676           N00924           N01306           80.000     0.0130   0 0 0 0
G00677           N00925           N00926           247.386    0.0130   0 0 0 0
G00678           N00926           N02599           56.569     0.0130   0 0 0 0
G00679           N00928           N00927           84.853     0.0130   0 0 0 0
G00680           N00929           N00928           189.737    0.0130   0 0 0 0
G00681           N00930           N02417           82.462     0.0130   0 0 0 0
G00682           N00931           N00932           145.602    0.0130   0 0 0 0
G00683           N00932           N01048           181.108    0.0130   0 0 0 0
G00684           N00933           N00083           63.246     0.0130   0 0 0 0
G00685           N00934           N00652           63.246     0.0130   0 0 0 0
G00686           N00941           N01476           89.443     0.0130   0 0 0 0
G00687           N00944           N01250           84.853     0.0130   0 0 0 0
G00688           N00945           N00951           100.000    0.0130   0 0 0 0
G00689           N00946           N00951           101.980    0.0130   0 0 0 0
G00690           N00947           N00945           80.000     0.0130   0 0 0 0
G00691           N00948           N00947           107.703    0.0130   0 0 0 0
G00692           N00949           N00948           84.853     0.0130   0 0 0 0
G00693           N00951           N00952           141.421    0.0130   0 0 0 0
G00694           N00952           N02829           100.000    0.0130   0 0 0 0
G00695           N00954           N02144           60.000     0.0130   0 0 0 0
G00696           N00955           N00954           180.000    0.0130   0 0 0 0
G00697           N00957           N01346           44.721     0.0130   0 0 0 0
G00698           N00958           N01390           84.853     0.0130   0 0 0 0
G00699           N00959           N00958           89.443     0.0130   0 0 0 0
G00700           N00962           N00181           60.000     0.0130   0 0 0 0
G00701           N00963           N00180           60.000     0.0130   0 0 0 0
G00702           N00964           N00191           84.853     0.0130   0 0 0 0
G00703           N00965           N00964           156.205    0.0130   0 0 0 0
G00704           N00974           N00612           101.980    0.0130   0 0 0 0
G00705           N00975           N02753           82.462     0.0130   0 0 0 0
G00706           N00980           N00979           181.108    0.0130   0 0 0 0
G00707           N00983           N02844           203.961    0.0130   0 0 0 0
G00708           N00984           N00035           100.000    0.0130   0 0 0 0
G00709           N00985           N00986           161.245    0.0130   0 0 0 0
G00710           N00986           N00851           28.284     0.0130   0 0 0 0
G00711           N00987           N00483           100.000    0.0130   0 0 0 0
G00712           N00988           N00989           141.421    0.0130   0 0 0 0
G00713           N00989           N00502           44.721     0.0130   0 0 0 0
G00714           N00990           N02278           100.000    0.0130   0 0 0 0
G00715           N00991           N00483           189.737    0.0130   0 0 0 0
G00716           N00992           N00991           181.108    0.0130   0 0 0 0
G00717           N00993           N00992           140.000    0.0130   0 0 0 0
G00718           N00996           N00861           80.000     0.0130   0 0 0 0
G00719           N00997           N00996           170.880    0.0130   0 0 0 0
G00720           N00998           N00996           200.998    0.0130   0 0 0 0
G00721           N00999           N00998           140.000    0.0130   0 0 0 0
G00722           N01000           N01001           126.491    0.0130   0 0 0 0
G00723           N01001           N02503           28.284     0.0130   0 0 0 0
G00724           N01002           N01531           84.853     0.0130   0 0 0 0
G00725           N01003           N01002           312.410    0.0130   0 0 0 0
G00726           N01004           N00984           84.853     0.0130   0 0 0 0
G00727           N01006           N01007           172.047    0.0130   0 0 0 0
G00728           N01007           N01325           56.569     0.0130   0 0 0 0
G00729           N01008           N00034           80.000     0.0130   0 0 0 0
G00730           N01010           N00993           72.111     0.0130   0 0 0 0
G00731           N01011           N01010           120.000    0.0130   0 0 0 0
G00732           N01012           N01013           172.047    0.0130   0 0 0 0
G00733           N01015           N00724           60.000     0.0130   0 0 0 0
G00734           N01016           N00724           63.246     0.0130   0 0 0 0
G00735           N01019           N00925           82.462     0.0130   0 0 0 0
G00736           N01020           N00924           63.246     0.0130   0 0 0 0
G00737           N01021           N01020           404.475    0.0130   0 0 0 0
G00738           N01022           N01023           181.108    0.0130   0 0 0 0
G00739           N01023           N00925           80.000     0.0130   0 0 0 0
G00740           N01025           N00107           63.246     0.0130   0 0 0 0
G00741           N01026           N00107           82.462     0.0130   0 0 0 0
G00742           N01028           N01029           121.655    0.0130   0 0 0 0
G00743           N01029           N01762           20.000     0.0130   0 0 0 0
G00744           N01030           N02702           101.980    0.0130   0 0 0 0
G00745           N01031           N02800           60.000     0.0130   0 0 0 0
G00746           N01032           N01833           84.853     0.0130   0 0 0 0
G00747           N01033           N00288           89.443     0.0130   0 0 0 0
G00748           N01034           N01035           220.000    0.0130   0 0 0 0
G00749           N01035           N01738           100.000    0.0130   0 0 0 0
G00750           N01036           N01849           72.111     0.0130   0 0 0 0
G00751           N01037           N00298           60.000     0.0130   0 0 0 0
G00752           N01038           N01037           82.462     0.0130   0 0 0 0
G00753           N01039           N00280           40.000     0.0130   0 0 0 0
G00754           N01040           N01277           100.000    0.0130   0 0 0 0
G00755           N01042           N02079           164.924    0.0130   0 0 0 0
G00756           N01043           N01044           121.655    0.0130   0 0 0 0
G00757           N01044           N02522           89.443     0.0130   0 0 0 0
G00758           N01045           N02520           100.000    0.0130   0 0 0 0
G00759           N01046           N01047           169.706    0.0130   0 0 0 0
G00760           N01047           N02689           44.721     0.0130   0 0 0 0
G00761           N01048           N01049           126.491    0.0130   0 0 0 0
G00762           N01049           N01050           152.315    0.0130   0 0 0 0
G00763           N01050           N01046           113.137    0.0130   0 0 0 0
G00764           N01051           N00607           72.111     0.0130   0 0 0 0
G00765           N01052           N00605           161.245    0.0130   0 0 0 0
G00766           N01053           N01054           180.000    0.0130   0 0 0 0
G00767           N01054           N01055           145.602    0.0130   0 0 0 0
G00768           N01055           N01056           161.245    0.0130   0 0 0 0
G00769           N01056           N01046           89.443     0.0130   0 0 0 0
G00770           N01057           N02689           82.462     0.0130   0 0 0 0
G00771           N01058           N01586           44.721     0.0130   0 0 0 0
G00772           N01059           N01058           128.062    0.0130   0 0 0 0
G00773           N01060           N01089           82.462     0.0130   0 0 0 0
G00774           N01061           N01062           215.407    0.0130   0 0 0 0
G00775           N01062           N02263           44.721     0.0130   0 0 0 0
G00776           N01063           N02262           100.000    0.0130   0 0 0 0
G00777           N01064           N02238           250.599    0.0130   0 0 0 0
G00778           N01065           N02241           100.000    0.0130   0 0 0 0
G00779           N01066           N01785           80.000     0.0130   0 0 0 0
G00780           N01067           N01066           126.491    0.0130   0 0 0 0
G00781           N01068           N01069           203.961    0.0130   0 0 0 0
G00782           N01069           N00493           40.000     0.0130   0 0 0 0
G00783           N01070           N02006           63.246     0.0130   0 0 0 0
G00784           N01072           N01073           181.108    0.0130   0 0 0 0
G00785           N01073           N01825           80.000     0.0130   0 0 0 0
G00786           N01074           N01993           100.000    0.0130   0 0 0 0
G00787           N01075           N01825           100.000    0.0130   0 0 0 0
G00788           N01076           N01341           44.721     0.0130   0 0 0 0
G00789           N01077           N00679           82.462     0.0130   0 0 0 0
G00790           N01078           N01903           28.284     0.0130   0 0 0 0
G00791           N01080           N01626           161.245    0.0130   0 0 0 0
G00792           N01083           N00217           200.000    0.0130   0 0 0 0
G00793           N01084           N00240           72.111     0.0130   0 0 0 0
G00794           N01089           N00607           63.246     0.0130   0 0 0 0
G00795           N01090           N02546           56.569     0.0130   0 0 0 0
G00796           N01091           N02781           100.000    0.0130   0 0 0 0
G00797           N01092           N01093           164.924    0.0130   0 0 0 0
G00798           N01093           N02406           223.607    0.0130   0 0 0 0
G00799           N01098           N01101           72.111     0.0130   0 0 0 0
G00800           N01100           N01101           89.443     0.0130   0 0 0 0
G00801           N01101           N01102           252.982    0.0130   0 0 0 0
G00802           N01102           N01103           120.000    0.0130   0 0 0 0
G00803           N01103           N02090           100.000    0.0130   0 0 0 0
G00804           N01111           N01887           80.000     0.0130   0 0 0 0
G00805           N01113           N01114           164.924    0.0130   0 0 0 0
G00806           N01115           N01113           28.284     0.0130   0 0 0 0
G00807           N01116           N01034           100.000    0.0130   0 0 0 0
G00808           N01117           N01118           160.000    0.0130   0 0 0 0
G00809           N01118           N00019           28.284     0.0130   0 0 0 0
G00810           N01119           N01120           240.000    0.0130   0 0 0 0
G00811           N01120           N01694           100.000    0.0130   0 0 0 0
G00812           N01121           N01996           72.111     0.0130   0 0 0 0
G00813           N01123           N02765           60.000     0.0130   0 0 0 0
G00814           N01124           N00541           72.111     0.0130   0 0 0 0
G00815           N01126           N01610           56.569     0.0130   0 0 0 0
G00816           N01127           N01129           100.000    0.0130   0 0 0 0
G00817           N01129           N00889           44.721     0.0130   0 0 0 0
G00818           N01130           N01128           44.721     0.0130   0 0 0 0
G00819           N01131           N00889           44.721     0.0130   0 0 0 0
G00820           N01132           N00890           89.443     0.0130   0 0 0 0
G00821           N01133           N01130           100.000    0.0130   0 0 0 0
G00822           N01135           N01285           134.164    0.0130   0 0 0 0
G00823           N01137           N02447           89.443     0.0130   0 0 0 0
G00824           N01140           N01533           40.000     0.0130   0 0 0 0
G00825           N01141           N01142           89.443     0.0130   0 0 0 0
G00826           N01142           N00592           412.311    0.0130   0 0 0 0
G00827           N01143           N00445           82.462     0.0130   0 0 0 0
G00828           N01144           N01143           180.000    0.0130   0 0 0 0
G00829           N01145           N01144           126.491    0.0130   0 0 0 0
G00830           N01146           N01143           161.245    0.0130   0 0 0 0
G00831           N01147           N01146           134.164    0.0130   0 0 0 0
G00832           N01154           N02413           100.000    0.0130   0 0 0 0
G00833           N01158           N02294           82.462     0.0130   0 0 0 0
G00834           N01162           N01163           40.000     0.0130   0 0 0 0
G00835           N01163           N01164           220.000    0.0130   0 0 0 0
G00836           N01164           N02495           60.000     0.0130   0 0 0 0
G00837           N01166           N00590           63.246     0.0130   0 0 0 0
G00838           N01176           N01198           144.222    0.0130   0 0 0 0
G00839           N01185           N02590           60.000     0.0130   0 0 0 0
G00840           N01204           N01304           107.703    0.0130   0 0 0 0
G00841           N01205           N01204           184.391    0.0130   0 0 0 0
G00842           N01207           N01208           200.000    0.0130   0 0 0 0
G00843           N01208           N02130           89.443     0.0130   0 0 0 0
G00844           N01209           N02138           28.284     0.0130   0 0 0 0
G00845           N01210           N00569           63.246     0.0130   0 0 0 0
G00846           N01211           N00024           44.721     0.0130   0 0 0 0
G00847           N01212           N01504           89.443     0.0130   0 0 0 0
G00848           N01213           N02292           226.274    0.0130   0 0 0 0
G00849           N01215           N01214           140.000    0.0130   0 0 0 0
G00850           N01216           N01211           188.680    0.0130   0 0 0 0
G00851           N01218           N02305           100.000    0.0130   0 0 0 0
G00852           N01240           N01241           184.391    0.0130   0 0 0 0
G00853           N01241           N02261           100.000    0.0130   0 0 0 0
G00854           N01247           N02842           140.000    0.0130   0 0 0 0
G00855           N01248           N01249           126.491    0.0130   0 0 0 0
G00856           N01250           N02308           82.462     0.0130   0 0 0 0
G00857           N01251           N01526           116.619    0.0130   0 0 0 0
G00858           N01252           N02122           44.721     0.0130   0 0 0 0
G00859           N01253           N01252           160.000    0.0130   0 0 0 0
G00860           N01255           N01254           84.853     0.0130   0 0 0 0
G00861           N01256           N01973           44.721     0.0130   0 0 0 0
G00862           N01257           N01973           60.000     0.0130   0 0 0 0
G00863           N01258           N01973           63.246     0.0130   0 0 0 0
G00864           N01259           N01260           116.619    0.0130   0 0 0 0
G00865           N01264           N02025           44.721     0.0130   0 0 0 0
G00866           N01265           N02047           56.569     0.0130   0 0 0 0
G00867           N01266           N01342           44.721     0.0130   0 0 0 0
G00868           N01267           N01266           223.607    0.0130   0 0 0 0
G00869           N01269           N01951           141.421    0.0130   0 0 0 0
G00870           N01270           N01269           260.000    0.0130   0 0 0 0
G00871           N01271           N01874           63.246     0.0130   0 0 0 0
G00872           N01272           N01274           184.391    0.0130   0 0 0 0
G00873           N01273           N02485           89.443     0.0130   0 0 0 0
G00874           N01274           N02473           100.000    0.0130   0 0 0 0
G00875           N01275           N00692           141.421    0.0130   0 0 0 0
G00876           N01276           N01414           357.771    0.0130   0 0 0 0
G00877           N01277           N00318           89.443     0.0130   0 0 0 0
G00878           N01278           N01277           200.998    0.0130   0 0 0 0
G00879           N01279           N02025           60.000     0.0130   0 0 0 0
G00880           N01280           N01279           208.806    0.0130   0 0 0 0
G00881           N01281           N01282           188.680    0.0130   0 0 0 0
G00882           N01282           N01587           113.137    0.0130   0 0 0 0
G00883           N01283           N01335           40.000     0.0130   0 0 0 0
G00884           N01284           N00711           44.721     0.0130   0 0 0 0
G00885           N01285           N01205           20.000     0.0130   0 0 0 0
G00886           N01287           N01288           200.000    0.0130   0 0 0 0
G00887           N01288           N01666           160.000    0.0130   0 0 0 0
G00888           N01289           N02112           44.721     0.0130   0 0 0 0
G00889           N01290           N00877           28.284     0.0130   0 0 0 0
G00890           N01291           N02543           80.000     0.0130   0 0 0 0
G00891           N01292           N01493           40.000     0.0130   0 0 0 0
G00892           N01293           N01770           100.000    0.0130   0 0 0 0
G00893           N01294           N01297           63.246     0.0130   0 0 0 0
G00894           N01295           N01493           80.000     0.0130   0 0 0 0
G00895           N01296           N01297           184.391    0.0130   0 0 0 0
G00896           N01297           N01299           141.421    0.0130   0 0 0 0
G00897           N01298           N00270           56.569     0.0130   0 0 0 0
G00898           N01299           N00326           40.000     0.0130   0 0 0 0
G00899           N01300           N01299           141.421    0.0130   0 0 0 0
G00900           N01302           N01711           72.111     0.0130   0 0 0 0
G00901           N01303           N02798           100.000    0.0130   0 0 0 0
G00902           N01304           N01303           44.721     0.0130   0 0 0 0
G00903           N01305           N00727           100.000    0.0130   0 0 0 0
G00904           N01306           N01317           100.000    0.0130   0 0 0 0
G00905           N01307           N01317           28.284     0.0130   0 0 0 0
G00906           N01308           N01319           56.569     0.0130   0 0 0 0
G00907           N01309           N00724           100.000    0.0130   0 0 0 0
G00908           N01311           N01310           180.000    0.0130   0 0 0 0
G00909           N01312           N01313           208.806    0.0130   0 0 0 0
G00910           N01313           N02435           82.462     0.0130   0 0 0 0
G00911           N01314           N02427           72.111     0.0130   0 0 0 0
G00912           N01315           N00724           89.443     0.0130   0 0 0 0
G00913           N01316           N01319           63.246     0.0130   0 0 0 0
G00914           N01317           N01316           243.311    0.0130   0 0 0 0
G00915           N01318           N00008           60.000     0.0130   0 0 0 0
G00916           N01319           N00724           63.246     0.0130   0 0 0 0
G00917           N01320           N01408           63.246     0.0130   0 0 0 0
G00918           N01324           N00493           101.980    0.0130   0 0 0 0
G00919           N01325           N01327           82.462     0.0130   0 0 0 0
G00920           N01326           N00571           44.721     0.0130   0 0 0 0
G00921           N01327           N01331           164.924    0.0130   0 0 0 0
G00922           N01328           N01331           28.284     0.0130   0 0 0 0
G00923           N01329           N01331           89.443     0.0130   0 0 0 0
G00924           N01330           N01329           181.108    0.0130   0 0 0 0
G00925           N01332           N01335           63.246     0.0130   0 0 0 0
G00926           N01333           N00180           40.000     0.0130   0 0 0 0
G00927           N01334           N01333           178.885    0.0130   0 0 0 0
G00928           N01336           N01335           56.569     0.0130   0 0 0 0
G00929           N01337           N01335           107.703    0.0130   0 0 0 0
G00930           N01339           N02649           82.462     0.0130   0 0 0 0
G00931           N01340           N01911           100.000    0.0130   0 0 0 0
G00932           N01341           N01923           145.602    0.0130   0 0 0 0
G00933           N01342           N00323           72.111     0.0130   0 0 0 0
G00934           N01343           N00175           63.246     0.0130   0 0 0 0
G00935           N01345           N01344           145.602    0.0130   0 0 0 0
G00936           N01346           N01344           60.000     0.0130   0 0 0 0
G00937           N01347           N01345           100.000    0.0130   0 0 0 0
G00938           N01348           N01345           89.443     0.0130   0 0 0 0
G00939           N01349           N01344           44.721     0.0130   0 0 0 0
G00940           N01350           N00373           63.246     0.0130   0 0 0 0
G00941           N01351           N01350           256.125    0.0130   0 0 0 0
G00942           N01352           N00833           100.000    0.0130   0 0 0 0
G00943           N01353           N02751           82.462     0.0130   0 0 0 0
G00944           N01354           N00775           80.000     0.0130   0 0 0 0
G00945           N01355           N01884           100.000    0.0130   0 0 0 0
G00946           N01358           N01115           100.000    0.0130   0 0 0 0
G00947           N01361           N00493           82.462     0.0130   0 0 0 0
G00948           N01362           N02105           100.000    0.0130   0 0 0 0
G00949           N01363           N01362           145.602    0.0130   0 0 0 0
G00950           N01364           N02105           100.000    0.0130   0 0 0 0
G00951           N01365           N00318           40.000     0.0130   0 0 0 0
G00952           N01367           N01366           89.443     0.0130   0 0 0 0
G00953           N01368           N01366           184.391    0.0130   0 0 0 0
G00954           N01369           N01372           82.462     0.0130   0 0 0 0
G00955           N01370           N01026           100.000    0.0130   0 0 0 0
G00956           N01371           N01370           266.833    0.0130   0 0 0 0
G00957           N01372           N01371           126.491    0.0130   0 0 0 0
G00958           N01374           N00099           72.111     0.0130   0 0 0 0
G00959           N01377           N01735           100.000    0.0130   0 0 0 0
G00960           N01378           N01379           180.000    0.0130   0 0 0 0
G00961           N01380           N01045           82.462     0.0130   0 0 0 0
G00962           N01381           N00372           40.000     0.0130   0 0 0 0
G00963           N01382           N01381           128.062    0.0130   0 0 0 0
G00964           N01383           N00653           89.443     0.0130   0 0 0 0
G00965           N01384           N00372           89.443     0.0130   0 0 0 0
G00966           N01385           N02181           100.000    0.0130   0 0 0 0
G00967           N01386           N01471           72.111     0.0130   0 0 0 0
G00968           N01387           N01386           156.205    0.0130   0 0 0 0
G00969           N01388           N00125           44.721     0.0130   0 0 0 0
G00970           N01389           N00125           60.000     0.0130   0 0 0 0
G00971           N01391           N00211           44.721     0.0130   0 0 0 0
G00972           N01392           N00371           100.000    0.0130   0 0 0 0
G00973           N01393           N00097           63.246     0.0130   0 0 0 0
G00974           N01394           N00093           63.246     0.0130   0 0 0 0
G00975           N01395           N00096           63.246     0.0130   0 0 0 0
G00976           N01396           N01395           140.000    0.0130   0 0 0 0
G00977           N01397           N02427           100.000    0.0130   0 0 0 0
G00978           N01398           N00673           60.000     0.0130   0 0 0 0
G00979           N01399           N01400           181.108    0.0130   0 0 0 0
G00980           N01400           N01408           40.000     0.0130   0 0 0 0
G00981           N01401           N01369           200.998    0.0130   0 0 0 0
G00982           N01402           N00157           101.980    0.0130   0 0 0 0
G00983           N01404           N02366           82.462     0.0130   0 0 0 0
G00984           N01405           N01399           100.000    0.0130   0 0 0 0
G00985           N01406           N01399           140.000    0.0130   0 0 0 0
G00986           N01407           N02524           60.000     0.0130   0 0 0 0
G00987           N01408           N01409           184.391    0.0130   0 0 0 0
G00988           N01409           N01410           121.655    0.0130   0 0 0 0
G00989           N01410           N01411           184.391    0.0130   0 0 0 0
G00990           N01411           N01025           100.000    0.0130   0 0 0 0
G00991           N01412           N01339           141.421    0.0130   0 0 0 0
G00992           N01413           N00321           126.491    0.0130   0 0 0 0
G00993           N01414           N01413           216.333    0.0130   0 0 0 0
G00994           N01420           N01841           141.421    0.0130   0 0 0 0
G00995           N01421           N01832           161.245    0.0130   0 0 0 0
G00996           N01422           N01427           100.000    0.0130   0 0 0 0
G00997           N01425           N01835           100.000    0.0130   0 0 0 0
G00998           N01426           N01427           84.853     0.0130   0 0 0 0
G00999           N01428           N01426           84.853     0.0130   0 0 0 0
G01000           N01429           N01428           160.000    0.0130   0 0 0 0
G01001           N01430           N01833           44.721     0.0130   0 0 0 0
G01002           N01431           N01432           160.000    0.0130   0 0 0 0
G01003           N01432           N00300           28.284     0.0130   0 0 0 0
G01004           N01433           N00302           89.443     0.0130   0 0 0 0
G01005           N01434           N01431           84.853     0.0130   0 0 0 0
G01006           N01435           N01827           100.000    0.0130   0 0 0 0
G01007           N01436           N01440           100.000    0.0130   0 0 0 0
G01008           N01437           N01827           63.246     0.0130   0 0 0 0
G01009           N01438           N01827           44.721     0.0130   0 0 0 0
G01010           N01439           N01440           44.721     0.0130   0 0 0 0
G01011           N01441           N01835           72.111     0.0130   0 0 0 0
G01012           N01443           N01426           40.000     0.0130   0 0 0 0
G01013           N01444           N01425           56.569     0.0130   0 0 0 0
G01014           N01445           N01446           141.421    0.0130   0 0 0 0
G01015           N01446           N01808           82.462     0.0130   0 0 0 0
G01016           N01447           N01804           28.284     0.0130   0 0 0 0
G01017           N01448           N01447           200.998    0.0130   0 0 0 0
G01018           N01449           N01841           180.000    0.0130   0 0 0 0
G01019           N01450           N01451           80.000     0.0130   0 0 0 0
G01020           N01451           N01452           161.245    0.0130   0 0 0 0
G01021           N01453           N01791           100.000    0.0130   0 0 0 0
G01022           N01454           N02086           44.721     0.0130   0 0 0 0
G01023           N01455           N01456           160.000    0.0130   0 0 0 0
G01024           N01456           N01103           120.000    0.0130   0 0 0 0
G01025           N01457           N02081           152.315    0.0130   0 0 0 0
G01026           N01458           N01141           82.462     0.0130   0 0 0 0
G01027           N01459           N00769           80.000     0.0130   0 0 0 0
G01028           N01460           N01461           220.907    0.0130   0 0 0 0
G01029           N01461           N02429           384.708    0.0130   0 0 0 0
G01030           N01462           N00158           82.462     0.0130   0 0 0 0
G01031           N01463           N00114           100.000    0.0130   0 0 0 0
G01032           N01464           N01463           156.205    0.0130   0 0 0 0
G01033           N01465           N00148           82.462     0.0130   0 0 0 0
G01034           N01466           N01954           82.462     0.0130   0 0 0 0
G01035           N01467           N00795           100.000    0.0130   0 0 0 0
G01036           N01468           N01469           60.000     0.0130   0 0 0 0
G01037           N01470           N01388           84.853     0.0130   0 0 0 0
G01038           N01472           N02181           44.721     0.0130   0 0 0 0
G01039           N01474           N02699           89.443     0.0130   0 0 0 0
G01040           N01475           N02388           80.000     0.0130   0 0 0 0
G01041           N01476           N02610           60.000     0.0130   0 0 0 0
G01042           N01477           N02610           72.111     0.0130   0 0 0 0
G01043           N01478           N00197           72.111     0.0130   0 0 0 0
G01044           N01479           N01481           82.462     0.0130   0 0 0 0
G01045           N01480           N02392           63.246     0.0130   0 0 0 0
G01046           N01481           N02608           184.391    0.0130   0 0 0 0
G01047           N01482           N00192           40.000     0.0130   0 0 0 0
G01048           N01483           N00221           56.569     0.0130   0 0 0 0
G01049           N01484           N01483           203.961    0.0130   0 0 0 0
G01050           N01485           N02473           28.284     0.0130   0 0 0 0
G01051           N01486           N00174           89.443     0.0130   0 0 0 0
G01052           N01487           N01488           121.655    0.0130   0 0 0 0
G01053           N01488           N01082           82.462     0.0130   0 0 0 0
G01054           N01489           N00328           60.000     0.0130   0 0 0 0
G01055           N01490           N01489           101.980    0.0130   0 0 0 0
G01056           N01491           N01745           72.111     0.0130   0 0 0 0
G01057           N01492           N01753           40.000     0.0130   0 0 0 0
G01058           N01493           N00229           300.000    0.0130   0 0 0 0
G01059           N01494           N02364           220.907    0.0130   0 0 0 0
G01060           N01495           N01744           72.111     0.0130   0 0 0 0
G01061           N01496           N01744           100.000    0.0130   0 0 0 0
G01062           N01497           N01100           44.721     0.0130   0 0 0 0
G01063           N01498           N01497           282.843    0.0130   0 0 0 0
G01064           N01499           N00392           28.284     0.0130   0 0 0 0
G01065           N01500           N01767           80.000     0.0130   0 0 0 0
G01066           N01501           N01502           160.000    0.0130   0 0 0 0
G01067           N01502           N00326           89.443     0.0130   0 0 0 0
G01068           N01503           N00443           200.998    0.0130   0 0 0 0
G01069           N01504           N02291           84.853     0.0130   0 0 0 0
G01070           N01505           N01331           100.000    0.0130   0 0 0 0
G01071           N01508           N00537           40.000     0.0130   0 0 0 0
G01072           N01510           N00588           63.246     0.0130   0 0 0 0
G01073           N01511           N00588           100.000    0.0130   0 0 0 0
G01074           N01512           N02582           84.853     0.0130   0 0 0 0
G01075           N01513           N02582           134.164    0.0130   0 0 0 0
G01076           N01514           N01649           56.569     0.0130   0 0 0 0
G01077           N01515           N01648           44.721     0.0130   0 0 0 0
G01078           N01516           N01515           121.655    0.0130   0 0 0 0
G01079           N01517           N00013           82.462     0.0130   0 0 0 0
G01080           N01519           N00330           80.000     0.0130   0 0 0 0
G01081           N01520           N02802           72.111     0.0130   0 0 0 0
G01082           N01521           N01520           220.000    0.0130   0 0 0 0
G01083           N01522           N01126           84.853     0.0130   0 0 0 0
G01084           N01523           N01609           80.000     0.0130   0 0 0 0
G01085           N01524           N00532           72.111     0.0130   0 0 0 0
G01086           N01525           N02472           100.000    0.0130   0 0 0 0
G01087           N01527           N00984           72.111     0.0130   0 0 0 0
G01088           N01528           N00458           89.443     0.0130   0 0 0 0
G01089           N01529           N00554           72.111     0.0130   0 0 0 0
G01090           N01530           N02835           28.284     0.0130   0 0 0 0
G01091           N01531           N01530           160.000    0.0130   0 0 0 0
G01092           N01532           N00458           28.284     0.0130   0 0 0 0
G01093           N01533           N01563           286.356    0.0130   0 0 0 0
G01094           N01534           N00587           134.164    0.0130   0 0 0 0
G01095           N01536           N00573           20.000     0.0130   0 0 0 0
G01096           N01537           N00251           80.000     0.0130   0 0 0 0
G01097           N01538           N00251           80.000     0.0130   0 0 0 0
G01098           N01539           N00228           89.443     0.0130   0 0 0 0
G01099           N01540           N01541           101.980    0.0130   0 0 0 0
G01100           N01541           N00241           100.000    0.0130   0 0 0 0
G01101           N01542           N01873           63.246     0.0130   0 0 0 0
G01102           N01543           N00904           28.284     0.0130   0 0 0 0
G01103           N01544           N00903           56.569     0.0130   0 0 0 0
G01104           N01547           N02441           89.443     0.0130   0 0 0 0
G01105           N01548           N01549           113.137    0.0130   0 0 0 0
G01106           N01550           N02113           40.000     0.0130   0 0 0 0
G01107           N01551           N01037           44.721     0.0130   0 0 0 0
G01108           N01552           N00282           89.443     0.0130   0 0 0 0
G01109           N01553           N01552           152.315    0.0130   0 0 0 0
G01110           N01554           N01038           82.462     0.0130   0 0 0 0
G01111           N01555           N00282           72.111     0.0130   0 0 0 0
G01112           N01559           N01730           84.853     0.0130   0 0 0 0
G01113           N01560           N01561           228.035    0.0130   0 0 0 0
G01114           N01562           N01533           20.000     0.0130   0 0 0 0
G01115           N01563           N01564           161.245    0.0130   0 0 0 0
G01116           N01564           N01510           44.721     0.0130   0 0 0 0
G01117           N01565           N01566           126.491    0.0130   0 0 0 0
G01118           N01566           N01596           89.443     0.0130   0 0 0 0
G01119           N01573           N00266           44.721     0.0130   0 0 0 0
G01120           N01574           N01776           28.284     0.0130   0 0 0 0
G01121           N01575           N01574           160.000    0.0130   0 0 0 0
G01122           N01577           N01750           28.284     0.0130   0 0 0 0
G01123           N01578           N01579           160.000    0.0130   0 0 0 0
G01124           N01579           N02144           82.462     0.0130   0 0 0 0
G01125           N01580           N01991           278.568    0.0130   0 0 0 0
G01126           N01581           N02022           80.000     0.0130   0 0 0 0
G01127           N01582           N02022           100.000    0.0130   0 0 0 0
G01128           N01583           N01897           89.443     0.0130   0 0 0 0
G01129           N01584           N00175           121.655    0.0130   0 0 0 0
G01130           N01585           N01586           72.111     0.0130   0 0 0 0
G01131           N01586           N00778           197.990    0.0130   0 0 0 0
G01132           N01587           N01588           60.000     0.0130   0 0 0 0
G01133           N01588           N01585           100.000    0.0130   0 0 0 0
G01134           N01594           N01511           172.047    0.0130   0 0 0 0
G01135           N01595           N01533           84.853     0.0130   0 0 0 0
G01136           N01596           N00588           72.111     0.0130   0 0 0 0
G01137           N01597           N01596           100.000    0.0130   0 0 0 0
G01138           N01598           N01597           184.391    0.0130   0 0 0 0
G01139           N01599           N02726           220.000    0.0130   0 0 0 0
G01140           N01601           N01353           63.246     0.0130   0 0 0 0
G01141           N01602           N01353           82.462     0.0130   0 0 0 0
G01142           N01606           N00382           160.000    0.0130   0 0 0 0
G01143           N01607           N01608           128.062    0.0130   0 0 0 0
G01144           N01608           N01489           100.000    0.0130   0 0 0 0
G01145           N01609           N01610           188.680    0.0130   0 0 0 0
G01146           N01611           N01610           134.164    0.0130   0 0 0 0
G01147           N01612           N00818           220.907    0.0130   0 0 0 0
G01148           N01613           N01640           84.853     0.0130   0 0 0 0
G01149           N01614           N01615           181.108    0.0130   0 0 0 0
G01150           N01615           N02842           80.000     0.0130   0 0 0 0
G01151           N01616           N01617           152.315    0.0130   0 0 0 0
G01152           N01617           N02384           72.111     0.0130   0 0 0 0
G01153           N01618           N02354           89.443     0.0130   0 0 0 0
G01154           N01619           N00656           101.980    0.0130   0 0 0 0
G01155           N01620           N02352           100.000    0.0130   0 0 0 0
G01156           N01621           N02802           44.721     0.0130   0 0 0 0
G01157           N01622           N00787           80.000     0.0130   0 0 0 0
G01158           N01623           N00787           60.000     0.0130   0 0 0 0
G01159           N01624           N01623           156.205    0.0130   0 0 0 0
G01160           N01625           N01624           152.315    0.0130   0 0 0 0
G01161           N01626           N01625           145.602    0.0130   0 0 0 0
G01162           N01627           N00787           63.246     0.0130   0 0 0 0
G01163           N01628           N01629           233.238    0.0130   0 0 0 0
G01164           N01629           N02388           28.284     0.0130   0 0 0 0
G01165           N01630           N01631           170.880    0.0130   0 0 0 0
G01166           N01631           N02384           82.462     0.0130   0 0 0 0
G01167           N01632           N01390           100.000    0.0130   0 0 0 0
G01168           N01634           N02384           56.569     0.0130   0 0 0 0
G01169           N01635           N00643           80.000     0.0130   0 0 0 0
G01170           N01636           N01249           28.284     0.0130   0 0 0 0
G01171           N01637           N01639           100.000    0.0130   0 0 0 0
G01172           N01638           N01637           161.245    0.0130   0 0 0 0
G01173           N01640           N02495           82.462     0.0130   0 0 0 0
G01174           N01641           N01636           80.000     0.0130   0 0 0 0
G01175           N01642           N01640           63.246     0.0130   0 0 0 0
G01176           N01643           N01082           63.246     0.0130   0 0 0 0
G01177           N01645           N00092           72.111     0.0130   0 0 0 0
G01178           N01646           N01645           178.885    0.0130   0 0 0 0
G01179           N01647           N01648           145.602    0.0130   0 0 0 0
G01180           N01649           N01650           184.391    0.0130   0 0 0 0
G01181           N01650           N01651           240.832    0.0130   0 0 0 0
G01182           N01651           N01652           120.000    0.0130   0 0 0 0
G01183           N01652           N01373           60.000     0.0130   0 0 0 0
G01184           N01653           N00175           89.443     0.0130   0 0 0 0
G01185           N01654           N01493           56.569     0.0130   0 0 0 0
G01186           N01655           N01656           44.721     0.0130   0 0 0 0
G01187           N01656           N01657           80.000     0.0130   0 0 0 0
G01188           N01658           N00209           84.853     0.0130   0 0 0 0
G01189           N01659           N02473           84.853     0.0130   0 0 0 0
G01190           N01660           N02485           82.462     0.0130   0 0 0 0
G01191           N01661           N02607           72.111     0.0130   0 0 0 0
G01192           N01662           N00167           172.047    0.0130   0 0 0 0
G01193           N01663           N00787           89.443     0.0130   0 0 0 0
G01194           N01665           N01288           200.998    0.0130   0 0 0 0
G01195           N01666           N01669           100.000    0.0130   0 0 0 0
G01196           N01667           N01669           28.284     0.0130   0 0 0 0
G01197           N01668           N01667           160.000    0.0130   0 0 0 0
G01198           N01677           N01102           220.907    0.0130   0 0 0 0
G01199           N01678           N02088           80.000     0.0130   0 0 0 0
G01200           N01681           N01537           84.853     0.0130   0 0 0 0
G01201           N01682           N00299           80.000     0.0130   0 0 0 0
G01202           N01683           N01684           181.108    0.0130   0 0 0 0
G01203           N01685           N01686           200.000    0.0130   0 0 0 0
G01204           N01687           N01688           160.000    0.0130   0 0 0 0
G01205           N01688           N01685           40.000     0.0130   0 0 0 0
G01206           N01689           N01537           72.111     0.0130   0 0 0 0
G01207           N01691           N02815           80.000     0.0130   0 0 0 0
G01208           N01692           N01693           180.000    0.0130   0 0 0 0
G01209           N01693           N01123           100.000    0.0130   0 0 0 0
G01210           N01694           N01695           161.245    0.0130   0 0 0 0
G01211           N01695           N01706           82.462     0.0130   0 0 0 0
G01212           N01696           N01694           120.000    0.0130   0 0 0 0
G01213           N01697           N01773           40.000     0.0130   0 0 0 0
G01214           N01698           N01697           220.000    0.0130   0 0 0 0
G01215           N01699           N01739           80.000     0.0130   0 0 0 0
G01216           N01700           N01699           180.000    0.0130   0 0 0 0
G01217           N01701           N02767           144.222    0.0130   0 0 0 0
G01218           N01702           N01707           40.000     0.0130   0 0 0 0
G01219           N01703           N01710           100.000    0.0130   0 0 0 0
G01220           N01704           N01703           161.245    0.0130   0 0 0 0
G01221           N01706           N01707           141.421    0.0130   0 0 0 0
G01222           N01708           N01788           44.721     0.0130   0 0 0 0
G01223           N01709           N01708           220.907    0.0130   0 0 0 0
G01224           N01710           N01706           28.284     0.0130   0 0 0 0
G01225           N01711           N01713           141.421    0.0130   0 0 0 0
G01226           N01712           N01776           44.721     0.0130   0 0 0 0
G01227           N01713           N01715           84.853     0.0130   0 0 0 0
G01228           N01714           N01715           28.284     0.0130   0 0 0 0
G01229           N01716           N01575           89.443     0.0130   0 0 0 0
G01230           N01717           N01698           82.462     0.0130   0 0 0 0
G01231           N01718           N01737           60.000     0.0130   0 0 0 0
G01232           N01719           N01716           82.462     0.0130   0 0 0 0
G01233           N01720           N01723           180.000    0.0130   0 0 0 0
G01234           N01721           N01720           240.832    0.0130   0 0 0 0
G01235           N01722           N01729           28.284     0.0130   0 0 0 0
G01236           N01723           N01451           56.569     0.0130   0 0 0 0
G01237           N01724           N01729           20.000     0.0130   0 0 0 0
G01238           N01725           N01733           28.284     0.0130   0 0 0 0
G01239           N01726           N01727           200.000    0.0130   0 0 0 0
G01240           N01727           N01771           40.000     0.0130   0 0 0 0
G01241           N01728           N01452           44.721     0.0130   0 0 0 0
G01242           N01729           N01728           161.245    0.0130   0 0 0 0
G01243           N01730           N01452           56.569     0.0130   0 0 0 0
G01244           N01731           N01715           63.246     0.0130   0 0 0 0
G01245           N01732           N01715           60.000     0.0130   0 0 0 0
G01246           N01733           N01734           200.000    0.0130   0 0 0 0
G01247           N01734           N01729           82.462     0.0130   0 0 0 0
G01248           N01735           N01711           44.721     0.0130   0 0 0 0
G01249           N01736           N01711           40.000     0.0130   0 0 0 0
G01250           N01737           N01723           160.000    0.0130   0 0 0 0
G01251           N01738           N02815           100.000    0.0130   0 0 0 0
G01252           N01739           N01452           63.246     0.0130   0 0 0 0
G01253           N01740           N01559           63.246     0.0130   0 0 0 0
G01254           N01741           N01730           72.111     0.0130   0 0 0 0
G01255           N01742           N01741           181.108    0.0130   0 0 0 0
G01256           N01743           N01744           420.476    0.0130   0 0 0 0
G01257           N01744           N00326           63.246     0.0130   0 0 0 0
G01258           N01745           N00328           100.000    0.0130   0 0 0 0
G01259           N01746           N01743           200.998    0.0130   0 0 0 0
G01260           N01747           N01748           145.602    0.0130   0 0 0 0
G01261           N01748           N00326           44.721     0.0130   0 0 0 0
G01262           N01749           N02443           82.462     0.0130   0 0 0 0
G01263           N01751           N01029           121.655    0.0130   0 0 0 0
G01264           N01752           N01751           161.245    0.0130   0 0 0 0
G01265           N01754           N01452           72.111     0.0130   0 0 0 0
G01266           N01755           N01765           63.246     0.0130   0 0 0 0
G01267           N01756           N01769           82.462     0.0130   0 0 0 0
G01268           N01757           N01788           220.000    0.0130   0 0 0 0
G01269           N01759           N01776           44.721     0.0130   0 0 0 0
G01270           N01760           N02443           80.000     0.0130   0 0 0 0
G01271           N01761           N02443           100.000    0.0130   0 0 0 0
G01272           N01763           N00346           28.284     0.0130   0 0 0 0
G01273           N01764           N00346           20.000     0.0130   0 0 0 0
G01274           N01765           N01764           140.000    0.0130   0 0 0 0
G01275           N01766           N01452           44.721     0.0130   0 0 0 0
G01276           N01768           N01756           120.000    0.0130   0 0 0 0
G01277           N01770           N01782           44.721     0.0130   0 0 0 0
G01278           N01772           N01770           40.000     0.0130   0 0 0 0
G01279           N01773           N01772           200.998    0.0130   0 0 0 0
G01280           N01774           N01782           40.000     0.0130   0 0 0 0
G01281           N01775           N01771           100.000    0.0130   0 0 0 0
G01282           N01777           N01780           82.462     0.0130   0 0 0 0
G01283           N01778           N01776           40.000     0.0130   0 0 0 0
G01284           N01779           N01776           60.000     0.0130   0 0 0 0
G01285           N01780           N01574           80.000     0.0130   0 0 0 0
G01286           N01781           N01776           89.443     0.0130   0 0 0 0
G01287           N01783           N01776           63.246     0.0130   0 0 0 0
G01288           N01784           N01757           200.998    0.0130   0 0 0 0
G01289           N01785           N00284           80.000     0.0130   0 0 0 0
G01290           N01786           N01784           20.000     0.0130   0 0 0 0
G01291           N01787           N01757           181.108    0.0130   0 0 0 0
G01292           N01788           N01706           28.284     0.0130   0 0 0 0
G01293           N01790           N01686           28.284     0.0130   0 0 0 0
G01294           N01792           N01338           60.000     0.0130   0 0 0 0
G01295           N01793           N01996           60.000     0.0130   0 0 0 0
G01296           N01794           N01809           56.569     0.0130   0 0 0 0
G01297           N01795           N01794           220.907    0.0130   0 0 0 0
G01298           N01796           N01793           56.569     0.0130   0 0 0 0
G01299           N01797           N00307           89.443     0.0130   0 0 0 0
G01300           N01799           N01800           28.284     0.0130   0 0 0 0
G01301           N01800           N01798           82.462     0.0130   0 0 0 0
G01302           N01801           N01802           80.000     0.0130   0 0 0 0
G01303           N01802           N01338           120.000    0.0130   0 0 0 0
G01304           N01803           N01799           200.998    0.0130   0 0 0 0
G01305           N01804           N01803           160.000    0.0130   0 0 0 0
G01306           N01805           N01802           200.000    0.0130   0 0 0 0
G01307           N01806           N01440           100.000    0.0130   0 0 0 0
G01308           N01807           N01808           82.462     0.0130   0 0 0 0
G01309           N01808           N01809           220.000    0.0130   0 0 0 0
G01310           N01810           N01795           40.000     0.0130   0 0 0 0
G01311           N01811           N01887           63.246     0.0130   0 0 0 0
G01312           N01814           N01808           100.000    0.0130   0 0 0 0
G01313           N01815           N01800           44.721     0.0130   0 0 0 0
G01314           N01816           N01440           80.000     0.0130   0 0 0 0
G01315           N01817           N01440           82.462     0.0130   0 0 0 0
G01316           N01819           N01831           56.569     0.0130   0 0 0 0
G01317           N01820           N01836           100.000    0.0130   0 0 0 0
G01318           N01821           N01837           40.000     0.0130   0 0 0 0
G01319           N01822           N01430           100.000    0.0130   0 0 0 0
G01320           N01823           N01896           82.462     0.0130   0 0 0 0
G01321           N01824           N02007           84.853     0.0130   0 0 0 0
G01322           N01826           N01994           63.246     0.0130   0 0 0 0
G01323           N01827           N01440           60.000     0.0130   0 0 0 0
G01324           N01830           N01822           220.000    0.0130   0 0 0 0
G01325           N01831           N01832           160.000    0.0130   0 0 0 0
G01326           N01832           N01847           120.000    0.0130   0 0 0 0
G01327           N01833           N01856           82.462     0.0130   0 0 0 0
G01328           N01834           N02476           56.569     0.0130   0 0 0 0
G01329           N01835           N01439           140.000    0.0130   0 0 0 0
G01330           N01836           N01835           84.853     0.0130   0 0 0 0
G01331           N01837           N01838           300.666    0.0130   0 0 0 0
G01332           N01839           N01838           141.421    0.0130   0 0 0 0
G01333           N01840           N01429           100.000    0.0130   0 0 0 0
G01334           N01841           N01814           340.000    0.0130   0 0 0 0
G01335           N01842           N01420           40.000     0.0130   0 0 0 0
G01336           N01843           N01836           56.569     0.0130   0 0 0 0
G01337           N01844           N01836           72.111     0.0130   0 0 0 0
G01338           N01845           N01839           72.111     0.0130   0 0 0 0
G01339           N01846           N01837           82.462     0.0130   0 0 0 0
G01340           N01847           N01858           101.980    0.0130   0 0 0 0
G01341           N01850           N01851           180.000    0.0130   0 0 0 0
G01342           N01851           N00887           63.246     0.0130   0 0 0 0
G01343           N01852           N01831           40.000     0.0130   0 0 0 0
G01344           N01853           N01427           80.000     0.0130   0 0 0 0
G01345           N01854           N01427           60.000     0.0130   0 0 0 0
G01346           N01855           N01430           40.000     0.0130   0 0 0 0
G01347           N01857           N02716           63.246     0.0130   0 0 0 0
G01348           N01858           N00887           82.462     0.0130   0 0 0 0
G01349           N01859           N01860           200.998    0.0130   0 0 0 0
G01350           N01860           N02498           44.721     0.0130   0 0 0 0
G01351           N01861           N01859           180.000    0.0130   0 0 0 0
G01352           N01862           N02498           20.000     0.0130   0 0 0 0
G01353           N01863           N01864           200.000    0.0130   0 0 0 0
G01354           N01864           N02753           56.569     0.0130   0 0 0 0
G01355           N01865           N01868           28.284     0.0130   0 0 0 0
G01356           N01866           N01865           180.000    0.0130   0 0 0 0
G01357           N01867           N01122           100.000    0.0130   0 0 0 0
G01358           N01868           N01869           100.000    0.0130   0 0 0 0
G01359           N01870           N00333           63.246     0.0130   0 0 0 0
G01360           N01871           N01870           82.462     0.0130   0 0 0 0
G01361           N01872           N02715           63.246     0.0130   0 0 0 0
G01362           N01874           N00221           44.721     0.0130   0 0 0 0
G01363           N01877           N01883           240.000    0.0130   0 0 0 0
G01364           N01878           N00226           82.462     0.0130   0 0 0 0
G01365           N01879           N00826           63.246     0.0130   0 0 0 0
G01366           N01880           N00826           56.569     0.0130   0 0 0 0
G01367           N01881           N00824           101.980    0.0130   0 0 0 0
G01368           N01882           N00819           63.246     0.0130   0 0 0 0
G01369           N01883           N00220           82.462     0.0130   0 0 0 0
G01370           N01884           N00829           72.111     0.0130   0 0 0 0
G01371           N01885           N01876           40.000     0.0130   0 0 0 0
G01372           N01886           N00829           28.284     0.0130   0 0 0 0
G01373           N01887           N01888           145.602    0.0130   0 0 0 0
G01374           N01888           N00282           84.853     0.0130   0 0 0 0
G01375           N01889           N01554           44.721     0.0130   0 0 0 0
G01376           N01890           N01891           164.924    0.0130   0 0 0 0
G01377           N01891           N01989           100.000    0.0130   0 0 0 0
G01378           N01892           N01891           28.284     0.0130   0 0 0 0
G01379           N01893           N01892           203.961    0.0130   0 0 0 0
G01380           N01894           N01993           100.000    0.0130   0 0 0 0
G01381           N01895           N01072           80.000     0.0130   0 0 0 0
G01382           N01896           N01993           80.000     0.0130   0 0 0 0
G01383           N01897           N02022           82.462     0.0130   0 0 0 0
G01384           N01898           N02022           84.853     0.0130   0 0 0 0
G01385           N01899           N00831           141.421    0.0130   0 0 0 0
G01386           N01900           N01901           161.245    0.0130   0 0 0 0
G01387           N01901           N01924           89.443     0.0130   0 0 0 0
G01388           N01902           N01901           82.462     0.0130   0 0 0 0
G01389           N01903           N01368           345.254    0.0130   0 0 0 0
G01390           N01904           N01908           82.462     0.0130   0 0 0 0
G01391           N01905           N01904           401.995    0.0130   0 0 0 0
G01392           N01906           N01907           82.462     0.0130   0 0 0 0
G01393           N01907           N01901           80.000     0.0130   0 0 0 0
G01394           N01908           N01366           60.000     0.0130   0 0 0 0
G01395           N01910           N01341           56.569     0.0130   0 0 0 0
G01396           N01911           N00206           100.000    0.0130   0 0 0 0
G01397           N01912           N02809           63.246     0.0130   0 0 0 0
G01398           N01913           N02809           40.000     0.0130   0 0 0 0
G01399           N01914           N02787           84.853     0.0130   0 0 0 0
G01400           N01915           N01916           362.215    0.0130   0 0 0 0
G01401           N01916           N01341           60.000     0.0130   0 0 0 0
G01402           N01917           N01918           161.245    0.0130   0 0 0 0
G01403           N01918           N01908           100.000    0.0130   0 0 0 0
G01404           N01919           N01920           200.998    0.0130   0 0 0 0
G01405           N01920           N01908           100.000    0.0130   0 0 0 0
G01406           N01921           N01903           40.000     0.0130   0 0 0 0
G01407           N01922           N00679           44.721     0.0130   0 0 0 0
G01408           N01923           N01927           141.421    0.0130   0 0 0 0
G01409           N01924           N00679           89.443     0.0130   0 0 0 0
G01410           N01925           N01900           60.000     0.0130   0 0 0 0
G01411           N01927           N01930           101.980    0.0130   0 0 0 0
G01412           N01929           N00828           80.000     0.0130   0 0 0 0
G01413           N01930           N01926           60.000     0.0130   0 0 0 0
G01414           N01931           N00200           63.246     0.0130   0 0 0 0
G01415           N01932           N00199           100.000    0.0130   0 0 0 0
G01416           N01933           N01934           184.391    0.0130   0 0 0 0
G01417           N01934           N00799           84.853     0.0130   0 0 0 0
G01418           N01935           N01903           63.246     0.0130   0 0 0 0
G01419           N01936           N01935           180.000    0.0130   0 0 0 0
G01420           N01937           N01905           40.000     0.0130   0 0 0 0
G01421           N01938           N01964           84.853     0.0130   0 0 0 0
G01422           N01939           N01938           126.491    0.0130   0 0 0 0
G01423           N01940           N02707           100.000    0.0130   0 0 0 0
G01424           N01941           N02487           82.462     0.0130   0 0 0 0
G01425           N01942           N01270           40.000     0.0130   0 0 0 0
G01426           N01943           N01942           160.000    0.0130   0 0 0 0
G01427           N01945           N01466           89.443     0.0130   0 0 0 0
G01428           N01946           N02705           56.569     0.0130   0 0 0 0
G01429           N01947           N01269           164.924    0.0130   0 0 0 0
G01430           N01948           N01466           100.000    0.0130   0 0 0 0
G01431           N01949           N01940           82.462     0.0130   0 0 0 0
G01432           N01950           N01269           180.000    0.0130   0 0 0 0
G01433           N01951           N01952           141.421    0.0130   0 0 0 0
G01434           N01952           N00175           20.000     0.0130   0 0 0 0
G01435           N01953           N01951           181.108    0.0130   0 0 0 0
G01436           N01954           N00104           100.000    0.0130   0 0 0 0
G01437           N01955           N00794           120.000    0.0130   0 0 0 0
G01438           N01956           N01949           101.980    0.0130   0 0 0 0
G01439           N01958           N01973           72.111     0.0130   0 0 0 0
G01440           N01959           N01973           82.462     0.0130   0 0 0 0
G01441           N01961           N01959           89.443     0.0130   0 0 0 0
G01442           N01962           N01939           141.421    0.0130   0 0 0 0
G01443           N01963           N01901           63.246     0.0130   0 0 0 0
G01444           N01964           N01963           180.000    0.0130   0 0 0 0
G01445           N01965           N00688           80.000     0.0130   0 0 0 0
G01446           N01966           N01888           89.443     0.0130   0 0 0 0
G01447           N01967           N01555           80.000     0.0130   0 0 0 0
G01448           N01968           N01967           181.108    0.0130   0 0 0 0
G01449           N01969           N01965           100.000    0.0130   0 0 0 0
G01450           N01970           N02425           28.284     0.0130   0 0 0 0
G01451           N01971           N01555           82.462     0.0130   0 0 0 0
G01452           N01972           N01973           28.284     0.0130   0 0 0 0
G01453           N01973           N00681           184.391    0.0130   0 0 0 0
G01454           N01974           N01975           170.880    0.0130   0 0 0 0
G01455           N01975           N02054           44.721     0.0130   0 0 0 0
G01456           N01977           N02044           44.721     0.0130   0 0 0 0
G01457           N01982           N00515           60.000     0.0130   0 0 0 0
G01458           N01984           N02044           28.284     0.0130   0 0 0 0
G01459           N01987           N01988           400.000    0.0130   0 0 0 0
G01460           N01988           N02003           160.000    0.0130   0 0 0 0
G01461           N01989           N01988           44.721     0.0130   0 0 0 0
G01462           N01991           N02008           141.421    0.0130   0 0 0 0
G01463           N01992           N01988           63.246     0.0130   0 0 0 0
G01464           N01993           N02002           82.462     0.0130   0 0 0 0
G01465           N01994           N01993           44.721     0.0130   0 0 0 0
G01466           N01995           N01998           80.000     0.0130   0 0 0 0
G01467           N01996           N00678           140.000    0.0130   0 0 0 0
G01468           N01997           N01968           220.907    0.0130   0 0 0 0
G01469           N01998           N01999           126.491    0.0130   0 0 0 0
G01470           N01999           N01968           120.000    0.0130   0 0 0 0
G01471           N02001           N02000           20.000     0.0130   0 0 0 0
G01472           N02003           N02001           28.284     0.0130   0 0 0 0
G01473           N02004           N02825           107.703    0.0130   0 0 0 0
G01474           N02006           N01071           63.246     0.0130   0 0 0 0
G01475           N02007           N02014           120.000    0.0130   0 0 0 0
G01476           N02008           N02009           181.108    0.0130   0 0 0 0
G01477           N02009           N02825           20.000     0.0130   0 0 0 0
G01478           N02010           N01987           121.655    0.0130   0 0 0 0
G01479           N02013           N01280           141.421    0.0130   0 0 0 0
G01480           N02015           N02047           20.000     0.0130   0 0 0 0
G01481           N02017           N02020           160.000    0.0130   0 0 0 0
G01482           N02018           N02019           197.990    0.0130   0 0 0 0
G01483           N02019           N01009           40.000     0.0130   0 0 0 0
G01484           N02020           N02004           44.721     0.0130   0 0 0 0
G01485           N02021           N02004           84.853     0.0130   0 0 0 0
G01486           N02022           N02017           56.569     0.0130   0 0 0 0
G01487           N02024           N00501           89.443     0.0130   0 0 0 0
G01488           N02025           N02026           134.164    0.0130   0 0 0 0
G01489           N02026           N02027           200.998    0.0130   0 0 0 0
G01490           N02027           N02047           63.246     0.0130   0 0 0 0
G01491           N02028           N02025           56.569     0.0130   0 0 0 0
G01492           N02029           N02026           116.619    0.0130   0 0 0 0
G01493           N02032           N01259           212.603    0.0130   0 0 0 0
G01494           N02033           N01957           82.462     0.0130   0 0 0 0
G01495           N02034           N02028           84.853     0.0130   0 0 0 0
G01496           N02035           N02047           44.721     0.0130   0 0 0 0
G01497           N02044           N02048           144.222    0.0130   0 0 0 0
G01498           N02046           N02004           63.246     0.0130   0 0 0 0
G01499           N02047           N02046           200.998    0.0130   0 0 0 0
G01500           N02048           N01265           100.000    0.0130   0 0 0 0
G01501           N02049           N02652           60.000     0.0130   0 0 0 0
G01502           N02050           N02049           170.880    0.0130   0 0 0 0
G01503           N02052           N01286           60.000     0.0130   0 0 0 0
G01504           N02053           N01560           28.284     0.0130   0 0 0 0
G01505           N02054           N02053           252.982    0.0130   0 0 0 0
G01506           N02055           N00681           20.000     0.0130   0 0 0 0
G01507           N02056           N02787           56.569     0.0130   0 0 0 0
G01508           N02057           N02639           84.853     0.0130   0 0 0 0
G01509           N02058           N02057           164.924    0.0130   0 0 0 0
G01510           N02059           N02058           188.680    0.0130   0 0 0 0
G01511           N02060           N02059           367.151    0.0130   0 0 0 0
G01512           N02061           N02062           250.599    0.0130   0 0 0 0
G01513           N02062           N02058           56.569     0.0130   0 0 0 0
G01514           N02063           N02058           44.721     0.0130   0 0 0 0
G01515           N02064           N02070           82.462     0.0130   0 0 0 0
G01516           N02065           N02066           156.205    0.0130   0 0 0 0
G01517           N02066           N02060           100.000    0.0130   0 0 0 0
G01518           N02067           N02060           28.284     0.0130   0 0 0 0
G01519           N02069           N02068           188.680    0.0130   0 0 0 0
G01520           N02071           N02656           89.443     0.0130   0 0 0 0
G01521           N02072           N02073           161.245    0.0130   0 0 0 0
G01522           N02073           N02663           44.721     0.0130   0 0 0 0
G01523           N02074           N02687           72.111     0.0130   0 0 0 0
G01524           N02075           N02676           84.853     0.0130   0 0 0 0
G01525           N02076           N02676           40.000     0.0130   0 0 0 0
G01526           N02077           N02071           161.245    0.0130   0 0 0 0
G01527           N02078           N02077           56.569     0.0130   0 0 0 0
G01528           N02079           N02080           164.924    0.0130   0 0 0 0
G01529           N02080           N02673           40.000     0.0130   0 0 0 0
G01530           N02081           N02082           181.108    0.0130   0 0 0 0
G01531           N02082           N02083           120.000    0.0130   0 0 0 0
G01532           N02083           N02086           40.000     0.0130   0 0 0 0
G01533           N02084           N02086           60.000     0.0130   0 0 0 0
G01534           N02085           N02086           44.721     0.0130   0 0 0 0
G01535           N02087           N02086           28.284     0.0130   0 0 0 0
G01536           N02088           N02090           161.245    0.0130   0 0 0 0
G01537           N02091           N02092           220.907    0.0130   0 0 0 0
G01538           N02092           N02095           40.000     0.0130   0 0 0 0
G01539           N02094           N00615           121.655    0.0130   0 0 0 0
G01540           N02095           N02093           63.246     0.0130   0 0 0 0
G01541           N02096           N00717           63.246     0.0130   0 0 0 0
G01542           N02097           N00717           84.853     0.0130   0 0 0 0
G01543           N02098           N02097           240.000    0.0130   0 0 0 0
G01544           N02099           N02098           40.000     0.0130   0 0 0 0
G01545           N02100           N02098           44.721     0.0130   0 0 0 0
G01546           N02101           N02103           220.000    0.0130   0 0 0 0
G01547           N02102           N00717           82.462     0.0130   0 0 0 0
G01548           N02103           N00317           89.443     0.0130   0 0 0 0
G01549           N02104           N00317           82.462     0.0130   0 0 0 0
G01550           N02105           N02096           89.443     0.0130   0 0 0 0
G01551           N02106           N00717           72.111     0.0130   0 0 0 0
G01552           N02107           N00717           82.462     0.0130   0 0 0 0
G01553           N02108           N01365           63.246     0.0130   0 0 0 0
G01554           N02109           N02793           28.284     0.0130   0 0 0 0
G01555           N02110           N02793           28.284     0.0130   0 0 0 0
G01556           N02111           N02112           160.000    0.0130   0 0 0 0
G01557           N02112           N01669           28.284     0.0130   0 0 0 0
G01558           N02114           N02111           460.000    0.0130   0 0 0 0
G01559           N02115           N02471           89.443     0.0130   0 0 0 0
G01560           N02116           N02115           121.655    0.0130   0 0 0 0
G01561           N02117           N02116           461.736    0.0130   0 0 0 0
G01562           N02118           N02115           243.311    0.0130   0 0 0 0
G01563           N02119           N02127           100.000    0.0130   0 0 0 0
G01564           N02120           N02133           82.462     0.0130   0 0 0 0
G01565           N02123           N02122           180.000    0.0130   0 0 0 0
G01566           N02124           N01251           89.443     0.0130   0 0 0 0
G01567           N02125           N02134           100.000    0.0130   0 0 0 0
G01568           N02126           N02140           82.462     0.0130   0 0 0 0
G01569           N02127           N01526           100.000    0.0130   0 0 0 0
G01570           N02128           N01254           63.246     0.0130   0 0 0 0
G01571           N02129           N02472           56.569     0.0130   0 0 0 0
G01572           N02130           N02131           320.000    0.0130   0 0 0 0
G01573           N02131           N02144           63.246     0.0130   0 0 0 0
G01574           N02132           N02472           60.000     0.0130   0 0 0 0
G01575           N02133           N01254           80.000     0.0130   0 0 0 0
G01576           N02134           N02118           44.721     0.0130   0 0 0 0
G01577           N02135           N02115           44.721     0.0130   0 0 0 0
G01578           N02136           N02115           60.000     0.0130   0 0 0 0
G01579           N02137           N02134           80.000     0.0130   0 0 0 0
G01580           N02138           N01379           141.421    0.0130   0 0 0 0
G01581           N02140           N02139           181.108    0.0130   0 0 0 0
G01582           N02141           N02472           80.000     0.0130   0 0 0 0
G01583           N02142           N00955           160.000    0.0130   0 0 0 0
G01584           N02143           N02144           44.721     0.0130   0 0 0 0
G01585           N02145           N00198           63.246     0.0130   0 0 0 0
G01586           N02146           N01934           100.000    0.0130   0 0 0 0
G01587           N02147           N01657           82.462     0.0130   0 0 0 0
G01588           N02148           N00198           100.000    0.0130   0 0 0 0
G01589           N02149           N00799           100.000    0.0130   0 0 0 0
G01590           N02156           N00537           89.443     0.0130   0 0 0 0
G01591           N02157           N02161           203.961    0.0130   0 0 0 0
G01592           N02158           N02130           63.246     0.0130   0 0 0 0
G01593           N02159           N02158           200.000    0.0130   0 0 0 0
G01594           N02160           N01206           82.462     0.0130   0 0 0 0
G01595           N02161           N02160           200.000    0.0130   0 0 0 0
G01596           N02163           N02157           100.000    0.0130   0 0 0 0
G01597           N02164           N02162           56.569     0.0130   0 0 0 0
G01598           N02166           N02167           100.000    0.0130   0 0 0 0
G01599           N02167           N02163           100.000    0.0130   0 0 0 0
G01600           N02168           N02162           60.000     0.0130   0 0 0 0
G01601           N02169           N02157           60.000     0.0130   0 0 0 0
G01602           N02170           N02164           72.111     0.0130   0 0 0 0
G01603           N02171           N00745           63.246     0.0130   0 0 0 0
G01604           N02172           N00045           82.462     0.0130   0 0 0 0
G01605           N02173           N01693           181.108    0.0130   0 0 0 0
G01606           N02174           N00661           56.569     0.0130   0 0 0 0
G01607           N02176           N00957           60.000     0.0130   0 0 0 0
G01608           N02177           N00661           72.111     0.0130   0 0 0 0
G01609           N02178           N02181           60.000     0.0130   0 0 0 0
G01610           N02179           N01471           20.000     0.0130   0 0 0 0
G01611           N02182           N01387           89.443     0.0130   0 0 0 0
G01612           N02187           N02188           161.245    0.0130   0 0 0 0
G01613           N02188           N02192           172.047    0.0130   0 0 0 0
G01614           N02191           N02384           72.111     0.0130   0 0 0 0
G01615           N02196           N02609           56.569     0.0130   0 0 0 0
G01616           N02199           N01481           89.443     0.0130   0 0 0 0
G01617           N02204           N02199           84.853     0.0130   0 0 0 0
G01618           N02208           N02210           180.000    0.0130   0 0 0 0
G01619           N02209           N01035           63.246     0.0130   0 0 0 0
G01620           N02210           N02702           40.000     0.0130   0 0 0 0
G01621           N02211           N00336           220.907    0.0130   0 0 0 0
G01622           N02212           N01031           82.462     0.0130   0 0 0 0
G01623           N02213           N00333           89.443     0.0130   0 0 0 0
G01624           N02215           N02214           170.880    0.0130   0 0 0 0
G01625           N02216           N02215           113.137    0.0130   0 0 0 0
G01626           N02219           N02409           89.443     0.0130   0 0 0 0
G01627           N02232           N02239           44.721     0.0130   0 0 0 0
G01628           N02236           N02239           63.246     0.0130   0 0 0 0
G01629           N02237           N02239           72.111     0.0130   0 0 0 0
G01630           N02238           N02239           44.721     0.0130   0 0 0 0
G01631           N02239           N02240           134.164    0.0130   0 0 0 0
G01632           N02240           N02254           100.000    0.0130   0 0 0 0
G01633           N02241           N02239           40.000     0.0130   0 0 0 0
G01634           N02242           N02263           20.000     0.0130   0 0 0 0
G01635           N02243           N02242           234.094    0.0130   0 0 0 0
G01636           N02244           N02243           28.284     0.0130   0 0 0 0
G01637           N02245           N02253           170.880    0.0130   0 0 0 0
G01638           N02246           N02245           161.245    0.0130   0 0 0 0
G01639           N02247           N02248           178.885    0.0130   0 0 0 0
G01640           N02248           N02249           141.421    0.0130   0 0 0 0
G01641           N02249           N02261           82.462     0.0130   0 0 0 0
G01642           N02250           N02251           161.245    0.0130   0 0 0 0
G01643           N02251           N02248           170.880    0.0130   0 0 0 0
G01644           N02252           N02246           101.980    0.0130   0 0 0 0
G01645           N02254           N01240           28.284     0.0130   0 0 0 0
G01646           N02256           N02251           28.284     0.0130   0 0 0 0
G01647           N02258           N02261           80.000     0.0130   0 0 0 0
G01648           N02259           N02258           181.108    0.0130   0 0 0 0
G01649           N02260           N00514           63.246     0.0130   0 0 0 0
G01650           N02262           N02259           44.721     0.0130   0 0 0 0
G01651           N02263           N02262           286.356    0.0130   0 0 0 0
G01652           N02264           N02260           80.000     0.0130   0 0 0 0
G01653           N02266           N02267           164.924    0.0130   0 0 0 0
G01654           N02268           N02266           300.000    0.0130   0 0 0 0
G01655           N02269           N02270           107.703    0.0130   0 0 0 0
G01656           N02270           N02303           100.000    0.0130   0 0 0 0
G01657           N02273           N00946           101.980    0.0130   0 0 0 0
G01658           N02275           N02566           140.000    0.0130   0 0 0 0
G01659           N02276           N02275           160.000    0.0130   0 0 0 0
G01660           N02277           N02568           100.000    0.0130   0 0 0 0
G01661           N02278           N02277           121.655    0.0130   0 0 0 0
G01662           N02279           N00859           120.000    0.0130   0 0 0 0
G01663           N02280           N02566           100.000    0.0130   0 0 0 0
G01664           N02281           N02298           120.000    0.0130   0 0 0 0
G01665           N02282           N01007           84.853     0.0130   0 0 0 0
G01666           N02283           N02503           100.000    0.0130   0 0 0 0
G01667           N02284           N00852           80.000     0.0130   0 0 0 0
G01668           N02285           N01325           63.246     0.0130   0 0 0 0
G01669           N02286           N02570           141.421    0.0130   0 0 0 0
G01670           N02287           N01325           89.443     0.0130   0 0 0 0
G01671           N02288           N02281           100.000    0.0130   0 0 0 0
G01672           N02289           N02281           80.000     0.0130   0 0 0 0
G01673           N02290           N02289           72.111     0.0130   0 0 0 0
G01674           N02292           N01214           160.000    0.0130   0 0 0 0
G01675           N02293           N01215           100.000    0.0130   0 0 0 0
G01676           N02294           N02293           141.421    0.0130   0 0 0 0
G01677           N02296           N02297           160.000    0.0130   0 0 0 0
G01678           N02297           N02289           40.000     0.0130   0 0 0 0
G01679           N02298           N02299           260.000    0.0130   0 0 0 0
G01680           N02299           N02567           72.111     0.0130   0 0 0 0
G01681           N02300           N02289           44.721     0.0130   0 0 0 0
G01682           N02301           N02300           180.000    0.0130   0 0 0 0
G01683           N02302           N02303           80.000     0.0130   0 0 0 0
G01684           N02303           N02296           82.462     0.0130   0 0 0 0
G01685           N02304           N00024           44.721     0.0130   0 0 0 0
G01686           N02305           N02307           116.619    0.0130   0 0 0 0
G01687           N02307           N02309           116.619    0.0130   0 0 0 0
G01688           N02308           N00024           72.111     0.0130   0 0 0 0
G01689           N02309           N01213           141.421    0.0130   0 0 0 0
G01690           N02310           N02302           28.284     0.0130   0 0 0 0
G01691           N02311           N02603           60.000     0.0130   0 0 0 0
G01692           N02312           N00382           72.111     0.0130   0 0 0 0
G01693           N02313           N00383           80.000     0.0130   0 0 0 0
G01694           N02315           N01744           82.462     0.0130   0 0 0 0
G01695           N02316           N02315           164.924    0.0130   0 0 0 0
G01696           N02317           N02318           160.000    0.0130   0 0 0 0
G01697           N02319           N02318           180.000    0.0130   0 0 0 0
G01698           N02325           N00372           63.246     0.0130   0 0 0 0
G01699           N02326           N00084           40.000     0.0130   0 0 0 0
G01700           N02327           N02326           200.000    0.0130   0 0 0 0
G01701           N02329           N02330           160.000    0.0130   0 0 0 0
G01702           N02330           N02354           100.000    0.0130   0 0 0 0
G01703           N02331           N00894           101.980    0.0130   0 0 0 0
G01704           N02332           N02327           208.806    0.0130   0 0 0 0
G01705           N02345           N00405           140.000    0.0130   0 0 0 0
G01706           N02352           N02351           282.843    0.0130   0 0 0 0
G01707           N02354           N02351           280.713    0.0130   0 0 0 0
G01708           N02355           N02351           82.462     0.0130   0 0 0 0
G01709           N02356           N02355           220.907    0.0130   0 0 0 0
G01710           N02364           N02365           164.924    0.0130   0 0 0 0
G01711           N02365           N02379           63.246     0.0130   0 0 0 0
G01712           N02366           N02367           184.391    0.0130   0 0 0 0
G01713           N02367           N02377           40.000     0.0130   0 0 0 0
G01714           N02368           N02366           63.246     0.0130   0 0 0 0
G01715           N02369           N02367           44.721     0.0130   0 0 0 0
G01716           N02370           N02369           100.000    0.0130   0 0 0 0
G01717           N02371           N02368           80.000     0.0130   0 0 0 0
G01718           N02373           N02366           56.569     0.0130   0 0 0 0
G01719           N02374           N02375           160.000    0.0130   0 0 0 0
G01720           N02375           N01625           82.462     0.0130   0 0 0 0
G01721           N02376           N02366           28.284     0.0130   0 0 0 0
G01722           N02378           N02370           40.000     0.0130   0 0 0 0
G01723           N02379           N02366           40.000     0.0130   0 0 0 0
G01724           N02381           N02384           72.111     0.0130   0 0 0 0
G01725           N02382           N02486           89.443     0.0130   0 0 0 0
G01726           N02383           N01617           56.569     0.0130   0 0 0 0
G01727           N02384           N02385           241.661    0.0130   0 0 0 0
G01728           N02389           N01481           89.443     0.0130   0 0 0 0
G01729           N02390           N02392           44.721     0.0130   0 0 0 0
G01730           N02391           N02392           44.721     0.0130   0 0 0 0
G01731           N02392           N00900           126.491    0.0130   0 0 0 0
G01732           N02406           N02781           63.246     0.0130   0 0 0 0
G01733           N02407           N02840           63.246     0.0130   0 0 0 0
G01734           N02408           N02410           181.108    0.0130   0 0 0 0
G01735           N02409           N02831           161.245    0.0130   0 0 0 0
G01736           N02410           N02721           100.000    0.0130   0 0 0 0
G01737           N02412           N01147           89.443     0.0130   0 0 0 0
G01738           N02413           N02414           282.843    0.0130   0 0 0 0
G01739           N02414           N00439           72.111     0.0130   0 0 0 0
G01740           N02415           N00439           63.246     0.0130   0 0 0 0
G01741           N02416           N00929           89.443     0.0130   0 0 0 0
G01742           N02417           N00929           82.462     0.0130   0 0 0 0
G01743           N02418           N00929           28.284     0.0130   0 0 0 0
G01744           N02424           N01903           44.721     0.0130   0 0 0 0
G01745           N02425           N01935           220.907    0.0130   0 0 0 0
G01746           N02426           N02427           82.462     0.0130   0 0 0 0
G01747           N02427           N01394           60.000     0.0130   0 0 0 0
G01748           N02428           N02802           72.111     0.0130   0 0 0 0
G01749           N02429           N00205           141.421    0.0130   0 0 0 0
G01750           N02430           N02029           100.000    0.0130   0 0 0 0
G01751           N02432           N01164           60.000     0.0130   0 0 0 0
G01752           N02433           N02432           121.655    0.0130   0 0 0 0
G01753           N02434           N01164           80.000     0.0130   0 0 0 0
G01754           N02435           N00090           89.443     0.0130   0 0 0 0
G01755           N02436           N02437           141.421    0.0130   0 0 0 0
G01756           N02437           N02438           240.832    0.0130   0 0 0 0
G01757           N02438           N01310           28.284     0.0130   0 0 0 0
G01758           N02439           N02440           141.421    0.0130   0 0 0 0
G01759           N02440           N00724           72.111     0.0130   0 0 0 0
G01760           N02442           N02603           40.000     0.0130   0 0 0 0
G01761           N02443           N02444           100.000    0.0130   0 0 0 0
G01762           N02445           N01290           100.000    0.0130   0 0 0 0
G01763           N02446           N02818           82.462     0.0130   0 0 0 0
G01764           N02447           N02448           160.000    0.0130   0 0 0 0
G01765           N02448           N02449           220.000    0.0130   0 0 0 0
G01766           N02449           N02636           100.000    0.0130   0 0 0 0
G01767           N02450           N02725           63.246     0.0130   0 0 0 0
G01768           N02454           N01709           100.000    0.0130   0 0 0 0
G01769           N02457           N01212           20.000     0.0130   0 0 0 0
G01770           N02458           N02292           160.000    0.0130   0 0 0 0
G01771           N02461           N00543           28.284     0.0130   0 0 0 0
G01772           N02462           N02464           72.111     0.0130   0 0 0 0
G01773           N02463           N02462           300.000    0.0130   0 0 0 0
G01774           N02464           N02791           89.443     0.0130   0 0 0 0
G01775           N02465           N02461           152.315    0.0130   0 0 0 0
G01776           N02466           N02791           89.443     0.0130   0 0 0 0
G01777           N02467           N02792           44.721     0.0130   0 0 0 0
G01778           N02468           N02792           40.000     0.0130   0 0 0 0
G01779           N02469           N02792           89.443     0.0130   0 0 0 0
G01780           N02470           N02791           82.462     0.0130   0 0 0 0
G01781           N02471           N02472           28.284     0.0130   0 0 0 0
G01782           N02474           N02473           141.421    0.0130   0 0 0 0
G01783           N02475           N00182           82.462     0.0130   0 0 0 0
G01784           N02476           N01863           141.421    0.0130   0 0 0 0
G01785           N02484           N01660           100.000    0.0130   0 0 0 0
G01786           N02485           N02473           28.284     0.0130   0 0 0 0
G01787           N02486           N02485           200.998    0.0130   0 0 0 0
G01788           N02487           N01953           100.000    0.0130   0 0 0 0
G01789           N02488           N02376           89.443     0.0130   0 0 0 0
G01790           N02489           N01080           40.000     0.0130   0 0 0 0
G01791           N02490           N02489           60.000     0.0130   0 0 0 0
G01792           N02491           N02433           44.721     0.0130   0 0 0 0
G01793           N02493           N02494           172.047    0.0130   0 0 0 0
G01794           N02494           N00901           89.443     0.0130   0 0 0 0
G01795           N02496           N02495           180.000    0.0130   0 0 0 0
G01796           N02497           N02753           84.853     0.0130   0 0 0 0
G01797           N02498           N02497           160.000    0.0130   0 0 0 0
G01798           N02499           N02497           72.111     0.0130   0 0 0 0
G01799           N02501           N00084           44.721     0.0130   0 0 0 0
G01800           N02502           N00449           425.206    0.0130   0 0 0 0
G01801           N02503           N02504           223.607    0.0130   0 0 0 0
G01802           N02504           N01007           44.721     0.0130   0 0 0 0
G01803           N02505           N01006           164.924    0.0130   0 0 0 0
G01804           N02506           N00575           44.721     0.0130   0 0 0 0
G01805           N02507           N02509           297.321    0.0130   0 0 0 0
G01806           N02508           N01533           56.569     0.0130   0 0 0 0
G01807           N02509           N01535           63.246     0.0130   0 0 0 0
G01808           N02511           N00590           100.000    0.0130   0 0 0 0
G01809           N02512           N00590           44.721     0.0130   0 0 0 0
G01810           N02513           N00493           44.721     0.0130   0 0 0 0
G01811           N02514           N00493           44.721     0.0130   0 0 0 0
G01812           N02515           N02514           220.907    0.0130   0 0 0 0
G01813           N02517           N02518           282.843    0.0130   0 0 0 0
G01814           N02518           N02708           100.000    0.0130   0 0 0 0
G01815           N02520           N01461           56.569     0.0130   0 0 0 0
G01816           N02521           N01317           63.246     0.0130   0 0 0 0
G01817           N02523           N01317           82.462     0.0130   0 0 0 0
G01818           N02524           N01317           40.000     0.0130   0 0 0 0
G01819           N02526           N01601           84.853     0.0130   0 0 0 0
G01820           N02527           N02689           100.000    0.0130   0 0 0 0
G01821           N02529           N00695           100.000    0.0130   0 0 0 0
G01822           N02530           N02529           56.569     0.0130   0 0 0 0
G01823           N02531           N02535           60.000     0.0130   0 0 0 0
G01824           N02532           N02535           40.000     0.0130   0 0 0 0
G01825           N02533           N00777           89.443     0.0130   0 0 0 0
G01826           N02534           N00777           63.246     0.0130   0 0 0 0
G01827           N02535           N02534           280.000    0.0130   0 0 0 0
G01828           N02536           N02535           56.569     0.0130   0 0 0 0
G01829           N02537           N02533           161.245    0.0130   0 0 0 0
G01830           N02538           N02535           56.569     0.0130   0 0 0 0
G01831           N02539           N02540           128.062    0.0130   0 0 0 0
G01832           N02540           N00832           63.246     0.0130   0 0 0 0
G01833           N02541           N00832           156.205    0.0130   0 0 0 0
G01834           N02542           N02549           82.462     0.0130   0 0 0 0
G01835           N02543           N02544           140.000    0.0130   0 0 0 0
G01836           N02544           N00853           63.246     0.0130   0 0 0 0
G01837           N02545           N02721           80.000     0.0130   0 0 0 0
G01838           N02546           N00076           100.000    0.0130   0 0 0 0
G01839           N02547           N02568           82.462     0.0130   0 0 0 0
G01840           N02548           N02543           223.607    0.0130   0 0 0 0
G01841           N02549           N01291           184.391    0.0130   0 0 0 0
G01842           N02551           N02268           80.000     0.0130   0 0 0 0
G01843           N02552           N02268           82.462     0.0130   0 0 0 0
G01844           N02555           N02268           89.443     0.0130   0 0 0 0
G01845           N02556           N02557           220.907    0.0130   0 0 0 0
G01846           N02558           N01392           100.000    0.0130   0 0 0 0
G01847           N02563           N01317           72.111     0.0130   0 0 0 0
G01848           N02564           N02565           161.245    0.0130   0 0 0 0
G01849           N02565           N00339           20.000     0.0130   0 0 0 0
G01850           N02566           N02567           170.880    0.0130   0 0 0 0
G01851           N02569           N02299           223.607    0.0130   0 0 0 0
G01852           N02575           N02388           100.000    0.0130   0 0 0 0
G01853           N02576           N02388           205.913    0.0130   0 0 0 0
G01854           N02583           N02584           196.977    0.0130   0 0 0 0
G01855           N02584           N02585           144.222    0.0130   0 0 0 0
G01856           N02585           N02586           284.253    0.0130   0 0 0 0
G01857           N02586           N02724           56.569     0.0130   0 0 0 0
G01858           N02587           N00769           121.655    0.0130   0 0 0 0
G01859           N02588           N02590           40.000     0.0130   0 0 0 0
G01860           N02590           N02589           200.000    0.0130   0 0 0 0
G01861           N02594           N00573           44.721     0.0130   0 0 0 0
G01862           N02595           N00911           82.462     0.0130   0 0 0 0
G01863           N02603           N02444           63.246     0.0130   0 0 0 0
G01864           N02604           N02714           40.000     0.0130   0 0 0 0
G01865           N02605           N02388           82.462     0.0130   0 0 0 0
G01866           N02606           N02610           28.284     0.0130   0 0 0 0
G01867           N02607           N01481           100.000    0.0130   0 0 0 0
G01868           N02609           N01481           63.246     0.0130   0 0 0 0
G01869           N02610           N02611           332.866    0.0130   0 0 0 0
G01870           N02611           N02605           100.000    0.0130   0 0 0 0
G01871           N02612           N01426           72.111     0.0130   0 0 0 0
G01872           N02613           N01427           63.246     0.0130   0 0 0 0
G01873           N02614           N01833           82.462     0.0130   0 0 0 0
G01874           N02615           N02614           247.386    0.0130   0 0 0 0
G01875           N02616           N02823           44.721     0.0130   0 0 0 0
G01876           N02617           N00787           100.000    0.0130   0 0 0 0
G01877           N02618           N00787           82.462     0.0130   0 0 0 0
G01878           N02619           N01833           28.284     0.0130   0 0 0 0
G01879           N02620           N02444           60.000     0.0130   0 0 0 0
G01880           N02622           N00175           40.000     0.0130   0 0 0 0
G01881           N02623           N00175           44.721     0.0130   0 0 0 0
G01882           N02625           N02626           240.000    0.0130   0 0 0 0
G01883           N02626           N02627           101.980    0.0130   0 0 0 0
G01884           N02627           N00813           140.000    0.0130   0 0 0 0
G01885           N02628           N02629           200.000    0.0130   0 0 0 0
G01886           N02629           N02630           160.000    0.0130   0 0 0 0
G01887           N02630           N00816           60.000     0.0130   0 0 0 0
G01888           N02631           N02728           82.462     0.0130   0 0 0 0
G01889           N02632           N02631           340.588    0.0130   0 0 0 0
G01890           N02633           N02632           101.980    0.0130   0 0 0 0
G01891           N02634           N02633           101.980    0.0130   0 0 0 0
G01892           N02635           N02631           300.666    0.0130   0 0 0 0
G01893           N02636           N02725           260.768    0.0130   0 0 0 0
G01894           N02637           N02638           100.000    0.0130   0 0 0 0
G01895           N02638           N02121           44.721     0.0130   0 0 0 0
G01896           N02639           N02648           121.655    0.0130   0 0 0 0
G01897           N02641           N01275           44.721     0.0130   0 0 0 0
G01898           N02642           N01275           28.284     0.0130   0 0 0 0
G01899           N02643           N02653           82.462     0.0130   0 0 0 0
G01900           N02644           N02643           145.602    0.0130   0 0 0 0
G01901           N02645           N02639           100.000    0.0130   0 0 0 0
G01902           N02647           N02656           63.246     0.0130   0 0 0 0
G01903           N02648           N02650           63.246     0.0130   0 0 0 0
G01904           N02649           N02650           181.108    0.0130   0 0 0 0
G01905           N02650           N02655           72.111     0.0130   0 0 0 0
G01906           N02651           N00680           72.111     0.0130   0 0 0 0
G01907           N02652           N00680           100.000    0.0130   0 0 0 0
G01908           N02653           N00323           82.462     0.0130   0 0 0 0
G01909           N02654           N00692           60.000     0.0130   0 0 0 0
G01910           N02656           N02665           181.108    0.0130   0 0 0 0
G01911           N02657           N02656           44.721     0.0130   0 0 0 0
G01912           N02658           N02659           220.000    0.0130   0 0 0 0
G01913           N02659           N02785           100.000    0.0130   0 0 0 0
G01914           N02660           N02661           184.391    0.0130   0 0 0 0
G01915           N02661           N02668           82.462     0.0130   0 0 0 0
G01916           N02662           N02660           220.000    0.0130   0 0 0 0
G01917           N02663           N02664           263.059    0.0130   0 0 0 0
G01918           N02664           N02640           20.000     0.0130   0 0 0 0
G01919           N02665           N02664           260.768    0.0130   0 0 0 0
G01920           N02666           N01275           63.246     0.0130   0 0 0 0
G01921           N02667           N02640           28.284     0.0130   0 0 0 0
G01922           N02668           N02787           63.246     0.0130   0 0 0 0
G01923           N02669           N02785           89.443     0.0130   0 0 0 0
G01924           N02670           N00694           28.284     0.0130   0 0 0 0
G01925           N02671           N02675           63.246     0.0130   0 0 0 0
G01926           N02672           N01380           63.246     0.0130   0 0 0 0
G01927           N02673           N02672           63.246     0.0130   0 0 0 0
G01928           N02674           N02672           44.721     0.0130   0 0 0 0
G01929           N02675           N00158           89.443     0.0130   0 0 0 0
G01930           N02676           N02662           145.602    0.0130   0 0 0 0
G01931           N02677           N02669           200.000    0.0130   0 0 0 0
G01932           N02678           N02663           40.000     0.0130   0 0 0 0
G01933           N02679           N02676           82.462     0.0130   0 0 0 0
G01934           N02680           N02676           63.246     0.0130   0 0 0 0
G01935           N02681           N02676           80.000     0.0130   0 0 0 0
G01936           N02682           N02078           126.491    0.0130   0 0 0 0
G01937           N02685           N02074           72.111     0.0130   0 0 0 0
G01938           N02686           N00691           89.443     0.0130   0 0 0 0
G01939           N02689           N02690           188.680    0.0130   0 0 0 0
G01940           N02690           N02686           100.000    0.0130   0 0 0 0
G01941           N02692           N02686           28.284     0.0130   0 0 0 0
G01942           N02693           N02692           169.706    0.0130   0 0 0 0
G01943           N02694           N02537           181.108    0.0130   0 0 0 0
G01944           N02695           N02537           161.245    0.0130   0 0 0 0
G01945           N02696           N00693           181.108    0.0130   0 0 0 0
G01946           N02697           N00155           63.246     0.0130   0 0 0 0
G01947           N02698           N02697           181.108    0.0130   0 0 0 0
G01948           N02699           N02388           63.246     0.0130   0 0 0 0
G01949           N02700           N02800           28.284     0.0130   0 0 0 0
G01950           N02701           N02700           480.416    0.0130   0 0 0 0
G01951           N02702           N01849           63.246     0.0130   0 0 0 0
G01952           N02703           N02800           63.246     0.0130   0 0 0 0
G01953           N02704           N02441           60.000     0.0130   0 0 0 0
G01954           N02705           N01953           100.000    0.0130   0 0 0 0
G01955           N02706           N01272           80.000     0.0130   0 0 0 0
G01956           N02707           N02705           82.462     0.0130   0 0 0 0
G01957           N02708           N01272           89.443     0.0130   0 0 0 0
G01958           N02709           N01630           44.721     0.0130   0 0 0 0
G01959           N02710           N02114           80.000     0.0130   0 0 0 0
G01960           N02711           N02710           280.713    0.0130   0 0 0 0
G01961           N02712           N02710           260.768    0.0130   0 0 0 0
G01962           N02713           N02800           100.000    0.0130   0 0 0 0
G01963           N02714           N00339           169.706    0.0130   0 0 0 0
G01964           N02715           N01031           100.000    0.0130   0 0 0 0
G01965           N02716           N02483           63.246     0.0130   0 0 0 0
G01966           N02717           N02715           116.619    0.0130   0 0 0 0
G01967           N02718           N02148           72.111     0.0130   0 0 0 0
G01968           N02719           N00199           84.853     0.0130   0 0 0 0
G01969           N02720           N01934           82.462     0.0130   0 0 0 0
G01970           N02722           N02723           216.333    0.0130   0 0 0 0
G01971           N02723           N02724           156.205    0.0130   0 0 0 0
G01972           N02725           N02121           40.000     0.0130   0 0 0 0
G01973           N02727           N02728           220.907    0.0130   0 0 0 0
G01974           N02728           N00045           89.443     0.0130   0 0 0 0
G01975           N02729           N01524           100.000    0.0130   0 0 0 0
G01976           N02730           N02731           288.444    0.0130   0 0 0 0
G01977           N02731           N02722           100.000    0.0130   0 0 0 0
G01978           N02734           N02585           100.000    0.0130   0 0 0 0
G01979           N02735           N02736           200.000    0.0130   0 0 0 0
G01980           N02736           N00045           89.443     0.0130   0 0 0 0
G01981           N02737           N02634           63.246     0.0130   0 0 0 0
G01982           N02738           N02737           200.000    0.0130   0 0 0 0
G01983           N02739           N02722           63.246     0.0130   0 0 0 0
G01984           N02740           N01599           63.246     0.0130   0 0 0 0
G01985           N02741           N00740           28.284     0.0130   0 0 0 0
G01986           N02743           N00641           40.000     0.0130   0 0 0 0
G01987           N02744           N00236           20.000     0.0130   0 0 0 0
G01988           N02745           N01163           56.569     0.0130   0 0 0 0
G01989           N02746           N02145           100.000    0.0130   0 0 0 0
G01990           N02747           N01876           28.284     0.0130   0 0 0 0
G01991           N02748           N00610           44.721     0.0130   0 0 0 0
G01992           N02749           N02748           189.737    0.0130   0 0 0 0
G01993           N02750           N01051           89.443     0.0130   0 0 0 0
G01994           N02751           N00672           196.977    0.0130   0 0 0 0
G01995           N02752           N01060           100.000    0.0130   0 0 0 0
G01996           N02753           N00875           63.246     0.0130   0 0 0 0
G01997           N02754           N02753           100.000    0.0130   0 0 0 0
G01998           N02755           N01993           82.462     0.0130   0 0 0 0
G01999           N02761           N00829           40.000     0.0130   0 0 0 0
G02000           N02765           N02766           161.245    0.0130   0 0 0 0
G02001           N02766           N02819           63.246     0.0130   0 0 0 0
G02002           N02767           N02444           20.000     0.0130   0 0 0 0
G02003           N02768           N01754           200.000    0.0130   0 0 0 0
G02004           N02769           N00877           100.000    0.0130   0 0 0 0
G02005           N02775           N02774           82.462     0.0130   0 0 0 0
G02006           N02776           N01890           101.980    0.0130   0 0 0 0
G02007           N02777           N00483           89.443     0.0130   0 0 0 0
G02008           N02778           N00986           82.462     0.0130   0 0 0 0
G02009           N02779           N00506           89.443     0.0130   0 0 0 0
G02010           N02780           N00509           89.443     0.0130   0 0 0 0
G02011           N02781           N02780           84.853     0.0130   0 0 0 0
G02012           N02782           N02843           63.246     0.0130   0 0 0 0
G02013           N02785           N02519           89.443     0.0130   0 0 0 0
G02014           N02791           N00886           100.000    0.0130   0 0 0 0
G02015           N02792           N02791           113.137    0.0130   0 0 0 0
G02016           N02793           N02794           200.998    0.0130   0 0 0 0
G02017           N02794           N01287           40.000     0.0130   0 0 0 0
G02018           N02795           N01287           44.721     0.0130   0 0 0 0
G02019           N02796           N00175           44.721     0.0130   0 0 0 0
G02020           N02798           N02799           172.047    0.0130   0 0 0 0
G02021           N02799           N02722           89.443     0.0130   0 0 0 0
G02022           N02801           N01031           100.000    0.0130   0 0 0 0
G02023           N02802           N02081           134.164    0.0130   0 0 0 0
G02024           N02803           N01510           84.853     0.0130   0 0 0 0
G02025           N02804           N00535           44.721     0.0130   0 0 0 0
G02026           N02805           N00530           161.245    0.0130   0 0 0 0
G02027           N02810           N01735           60.000     0.0130   0 0 0 0
G02028           N02811           N02813           56.569     0.0130   0 0 0 0
G02029           N02812           N02700           89.443     0.0130   0 0 0 0
G02030           N02813           N02814           160.000    0.0130   0 0 0 0
G02031           N02814           N01086           63.246     0.0130   0 0 0 0
G02032           N02816           N02817           100.000    0.0130   0 0 0 0
G02033           N02818           N02444           44.721     0.0130   0 0 0 0
G02034           N02819           N00877           82.462     0.0130   0 0 0 0
G02035           N02821           N02820           161.245    0.0130   0 0 0 0
G02036           N02822           N02820           156.205    0.0130   0 0 0 0
G02037           N02823           N02824           184.391    0.0130   0 0 0 0
G02038           N02824           N00787           82.462     0.0130   0 0 0 0
G02039           N02826           N02266           200.000    0.0130   0 0 0 0
G02040           N02827           N02826           160.000    0.0130   0 0 0 0
G02041           N02828           N02556           100.000    0.0130   0 0 0 0
G02042           N02829           N02830           200.000    0.0130   0 0 0 0
G02043           N02830           N02274           82.462     0.0130   0 0 0 0
G02044           N02831           N02410           44.721     0.0130   0 0 0 0
G02045           N02832           N00458           82.462     0.0130   0 0 0 0
G02046           N02833           N01531           100.000    0.0130   0 0 0 0
G02047           N02834           N02835           120.000    0.0130   0 0 0 0
G02048           N02835           N02836           184.391    0.0130   0 0 0 0
G02049           N02836           N00554           20.000     0.0130   0 0 0 0
G02050           N02838           N00074           82.462     0.0130   0 0 0 0
G02051           N02840           N02841           196.977    0.0130   0 0 0 0
G02052           N02842           N01639           44.721     0.0130   0 0 0 0
G02053           N02843           N00993           60.000     0.0130   0 0 0 0
G02054           N02844           N02843           121.655    0.0130   0 0 0 0
G02055           N02845           N01531           100.000    0.0130   0 0 0 0
O00001           N00013           OUT01            20.000     0.0130   0 0 0 0
O00002           N00045           OUT02            20.000     0.0130   0 0 0 0
O00003           N00084           OUT03            20.000     0.0130   0 0 0 0
O00004           N00096           OUT04            20.000     0.0130   0 0 0 0
O00005           N00123           OUT05            20.000     0.0130   0 0 0 0
O00006           N00125           OUT06            20.000     0.0130   0 0 0 0
O00007           N00166           OUT07            20.000     0.0130   0 0 0 0
O00008           N00175           OUT08            20.000     0.0130   0 0 0 0
O00009           N00179           OUT09            20.000     0.0130   0 0 0 0
O00010           N00211           OUT10            20.000     0.0130   0 0 0 0
O00011           N00214           OUT11            20.000     0.0130   0 0 0 0
O00012           N00243           OUT12            20.000     0.0130   0 0 0 0
O00013           N00251           OUT13            20.000     0.0130   0 0 0 0
O00014           N00266           OUT14            20.000     0.0130   0 0 0 0
O00015           N00268           OUT15            20.000     0.0130   0 0 0 0
O00016           N00293           OUT16            20.000     0.0130   0 0 0 0
O00017           N00298           OUT17            20.000     0.0130   0 0 0 0
O00018           N00326           OUT18            20.000     0.0130   0 0 0 0
O00019           N00340           OUT19            20.000     0.0130   0 0 0 0
O00020           N00384           OUT20            20.000     0.0130   0 0 0 0
O00021           N00412           OUT21            20.000     0.0130   0 0 0 0
O00022           N00425           OUT22            20.000     0.0130   0 0 0 0
O00023           N00442           OUT23            20.000     0.0130   0 0 0 0
O00024           N00450           OUT24            20.000     0.0130   0 0 0 0
O00025           N00454           OUT25            20.000     0.0130   0 0 0 0
O00026           N00479           OUT26            20.000     0.0130   0 0 0 0
O00027           N00494           OUT27            20.000     0.0130   0 0 0 0
O00028           N00496           OUT28            20.000     0.0130   0 0 0 0
O00029           N00500           OUT29            20.000     0.0130   0 0 0 0
O00030           N00543           OUT30            20.000     0.0130   0 0 0 0
O00031           N00574           OUT31            20.000     0.0130   0 0 0 0
O00032           N00588           OUT32            20.000     0.0130   0 0 0 0
O00033           N00653           OUT33            20.000     0.0130   0 0 0 0
O00034           N00667           OUT34            20.000     0.0130   0 0 0 0
O00035           N00678           OUT35            20.000     0.0130   0 0 0 0
O00036           N00682           OUT36            20.000     0.0130   0 0 0 0
O00037           N00711           OUT37            20.000     0.0130   0 0 0 0
O00038           N00725           OUT38            20.000     0.0130   0 0 0 0
O00039           N00739           OUT39            20.000     0.0130   0 0 0 0
O00040           N00744           OUT40            20.000     0.0130   0 0 0 0
O00041           N00770           OUT41            20.000     0.0130   0 0 0 0
O00042           N00787           OUT42            20.000     0.0130   0 0 0 0
O00043           N00791           OUT43            20.000     0.0130   0 0 0 0
O00044           N00793           OUT44            20.000     0.0130   0 0 0 0
O00045           N00801           OUT45            20.000     0.0130   0 0 0 0
O00046           N00822           OUT46            20.000     0.0130   0 0 0 0
O00047           N00829           OUT47            20.000     0.0130   0 0 0 0
O00048           N00832           OUT48            20.000     0.0130   0 0 0 0
O00049           N00851           OUT49            20.000     0.0130   0 0 0 0
O00050           N00855           OUT50            20.000     0.0130   0 0 0 0
O00051           N00861           OUT51            20.000     0.0130   0 0 0 0
O00052           N00873           OUT52            20.000     0.0130   0 0 0 0
O00053           N00886           OUT53            20.000     0.0130   0 0 0 0
O00054           N00887           OUT54            20.000     0.0130   0 0 0 0
O00055           N00892           OUT55            20.000     0.0130   0 0 0 0
O00056           N00900           OUT56            20.000     0.0130   0 0 0 0
O00057           N00916           OUT57            20.000     0.0130   0 0 0 0
O00058           N00927           OUT58            20.000     0.0130   0 0 0 0
O00059           N00979           OUT59            20.000     0.0130   0 0 0 0
O00060           N00994           OUT60            20.000     0.0130   0 0 0 0
O00061           N01009           OUT61            20.000     0.0130   0 0 0 0
O00062           N01013           OUT62            20.000     0.0130   0 0 0 0
O00063           N01024           OUT63            20.000     0.0130   0 0 0 0
O00064           N01071           OUT64            20.000     0.0130   0 0 0 0
O00065           N01081           OUT65            20.000     0.0130   0 0 0 0
O00066           N01082           OUT66            20.000     0.0130   0 0 0 0
O00067           N01086           OUT67            20.000     0.0130   0 0 0 0
O00068           N01112           OUT68            20.000     0.0130   0 0 0 0
O00069           N01114           OUT69            20.000     0.0130   0 0 0 0
O00070           N01122           OUT70            20.000     0.0130   0 0 0 0
O00071           N01125           OUT71            20.000     0.0130   0 0 0 0
O00072           N01128           OUT72            20.000     0.0130   0 0 0 0
O00073           N01186           OUT73            20.000     0.0130   0 0 0 0
O00074           N01198           OUT74            20.000     0.0130   0 0 0 0
O00075           N01206           OUT75            20.000     0.0130   0 0 0 0
O00076           N01214           OUT76            20.000     0.0130   0 0 0 0
O00077           N01249           OUT77            20.000     0.0130   0 0 0 0
O00078           N01254           OUT78            20.000     0.0130   0 0 0 0
O00079           N01260           OUT79            20.000     0.0130   0 0 0 0
O00080           N01286           OUT80            20.000     0.0130   0 0 0 0
O00081           N01310           OUT81            20.000     0.0130   0 0 0 0
O00082           N01331           OUT82            20.000     0.0130   0 0 0 0
O00083           N01335           OUT83            20.000     0.0130   0 0 0 0
O00084           N01338           OUT84            20.000     0.0130   0 0 0 0
O00085           N01344           OUT85            20.000     0.0130   0 0 0 0
O00086           N01366           OUT86            20.000     0.0130   0 0 0 0
O00087           N01373           OUT87            20.000     0.0130   0 0 0 0
O00088           N01379           OUT88            20.000     0.0130   0 0 0 0
O00089           N01390           OUT89            20.000     0.0130   0 0 0 0
O00090           N01427           OUT90            20.000     0.0130   0 0 0 0
O00091           N01440           OUT91            20.000     0.0130   0 0 0 0
O00092           N01442           OUT92            20.000     0.0130   0 0 0 0
O00093           N01452           OUT93            20.000     0.0130   0 0 0 0
O00094           N01469           OUT94            20.000     0.0130   0 0 0 0
O00095           N01471           OUT95            20.000     0.0130   0 0 0 0
O00096           N01526           OUT96            20.000     0.0130   0 0 0 0
O00097           N01535           OUT97            20.000     0.0130   0 0 0 0
O00098           N01549           OUT98            20.000     0.0130   0 0 0 0
O00099           N01561           OUT99            20.000     0.0130   0 0 0 0
O00100           N01572           OUT100           20.000     0.0130   0 0 0 0
O00101           N01576           OUT101           20.000     0.0130   0 0 0 0
O00102           N01591           OUT102           20.000     0.0130   0 0 0 0
O00103           N01610           OUT103           20.000     0.0130   0 0 0 0
O00104           N01639           OUT104           20.000     0.0130   0 0 0 0
O00105           N01648           OUT105           20.000     0.0130   0 0 0 0
O00106           N01657           OUT106           20.000     0.0130   0 0 0 0
O00107           N01669           OUT107           20.000     0.0130   0 0 0 0
O00108           N01684           OUT108           20.000     0.0130   0 0 0 0
O00109           N01686           OUT109           20.000     0.0130   0 0 0 0
O00110           N01690           OUT110           20.000     0.0130   0 0 0 0
O00111           N01705           OUT111           20.000     0.0130   0 0 0 0
O00112           N01707           OUT112           20.000     0.0130   0 0 0 0
O00113           N01715           OUT113           20.000     0.0130   0 0 0 0
O00114           N01750           OUT114           20.000     0.0130   0 0 0 0
O00115           N01753           OUT115           20.000     0.0130   0 0 0 0
O00116           N01762           OUT116           20.000     0.0130   0 0 0 0
O00117           N01767           OUT117           20.000     0.0130   0 0 0 0
O00118           N01769           OUT118           20.000     0.0130   0 0 0 0
O00119           N01771           OUT119           20.000     0.0130   0 0 0 0
O00120           N01776           OUT120           20.000     0.0130   0 0 0 0
O00121           N01782           OUT121           20.000     0.0130   0 0 0 0
O00122           N01791           OUT122           20.000     0.0130   0 0 0 0
O00123           N01798           OUT123           20.000     0.0130   0 0 0 0
O00124           N01809           OUT124           20.000     0.0130   0 0 0 0
O00125           N01812           OUT125           20.000     0.0130   0 0 0 0
O00126           N01813           OUT126           20.000     0.0130   0 0 0 0
O00127           N01818           OUT127           20.000     0.0130   0 0 0 0
O00128           N01825           OUT128           20.000     0.0130   0 0 0 0
O00129           N01838           OUT129           20.000     0.0130   0 0 0 0
O00130           N01849           OUT130           20.000     0.0130   0 0 0 0
O00131           N01856           OUT131           20.000     0.0130   0 0 0 0
O00132           N01869           OUT132           20.000     0.0130   0 0 0 0
O00133           N01873           OUT133           20.000     0.0130   0 0 0 0
O00134           N01876           OUT134           20.000     0.0130   0 0 0 0
O00135           N01926           OUT135           20.000     0.0130   0 0 0 0
O00136           N01928           OUT136           20.000     0.0130   0 0 0 0
O00137           N01944           OUT137           20.000     0.0130   0 0 0 0
O00138           N01957           OUT138           20.000     0.0130   0 0 0 0
O00139           N01960           OUT139           20.000     0.0130   0 0 0 0
O00140           N02000           OUT140           20.000     0.0130   0 0 0 0
O00141           N02002           OUT141           20.000     0.0130   0 0 0 0
O00142           N02005           OUT142           20.000     0.0130   0 0 0 0
O00143           N02014           OUT143           20.000     0.0130   0 0 0 0
O00144           N02016           OUT144           20.000     0.0130   0 0 0 0
O00145           N02023           OUT145           20.000     0.0130   0 0 0 0
O00146           N02036           OUT146           20.000     0.0130   0 0 0 0
O00147           N02068           OUT147           20.000     0.0130   0 0 0 0
O00148           N02070           OUT148           20.000     0.0130   0 0 0 0
O00149           N02086           OUT149           20.000     0.0130   0 0 0 0
O00150           N02090           OUT150           20.000     0.0130   0 0 0 0
O00151           N02093           OUT151           20.000     0.0130   0 0 0 0
O00152           N02113           OUT152           20.000     0.0130   0 0 0 0
O00153           N02121           OUT153           20.000     0.0130   0 0 0 0
O00154           N02122           OUT154           20.000     0.0130   0 0 0 0
O00155           N02139           OUT155           20.000     0.0130   0 0 0 0
O00156           N02144           OUT156           20.000     0.0130   0 0 0 0
O00157           N02162           OUT157           20.000     0.0130   0 0 0 0
O00158           N02175           OUT158           20.000     0.0130   0 0 0 0
O00159           N02181           OUT159           20.000     0.0130   0 0 0 0
O00160           N02192           OUT160           20.000     0.0130   0 0 0 0
O00161           N02214           OUT161           20.000     0.0130   0 0 0 0
O00162           N02231           OUT162           20.000     0.0130   0 0 0 0
O00163           N02253           OUT163           20.000     0.0130   0 0 0 0
O00164           N02261           OUT164           20.000     0.0130   0 0 0 0
O00165           N02267           OUT165           20.000     0.0130   0 0 0 0
O00166           N02271           OUT166           20.000     0.0130   0 0 0 0
O00167           N02272           OUT167           20.000     0.0130   0 0 0 0
O00168           N02274           OUT168           20.000     0.0130   0 0 0 0
O00169           N02291           OUT169           20.000     0.0130   0 0 0 0
O00170           N02306           OUT170           20.000     0.0130   0 0 0 0
O00171           N02314           OUT171           20.000     0.0130   0 0 0 0
O00172           N02318           OUT172           20.000     0.0130   0 0 0 0
O00173           N02328           OUT173           20.000     0.0130   0 0 0 0
O00174           N02351           OUT174           20.000     0.0130   0 0 0 0
O00175           N02372           OUT175           20.000     0.0130   0 0 0 0
O00176           N02377           OUT176           20.000     0.0130   0 0 0 0
O00177           N02385           OUT177           20.000     0.0130   0 0 0 0
O00178           N02388           OUT178           20.000     0.0130   0 0 0 0
O00179           N02411           OUT179           20.000     0.0130   0 0 0 0
O00180           N02441           OUT180           20.000     0.0130   0 0 0 0
O00181           N02444           OUT181           20.000     0.0130   0 0 0 0
O00182           N02472           OUT182           20.000     0.0130   0 0 0 0
O00183           N02473           OUT183           20.000     0.0130   0 0 0 0
O00184           N02483           OUT184           20.000     0.0130   0 0 0 0
O00185           N02495           OUT185           20.000     0.0130   0 0 0 0
O00186           N02500           OUT186           20.000     0.0130   0 0 0 0
O00187           N02510           OUT187           20.000     0.0130   0 0 0 0
O00188           N02519           OUT188           20.000     0.0130   0 0 0 0
O00189           N02522           OUT189           20.000     0.0130   0 0 0 0
O00190           N02528           OUT190           20.000     0.0130   0 0 0 0
O00191           N02550           OUT191           20.000     0.0130   0 0 0 0
O00192           N02553           OUT192           20.000     0.0130   0 0 0 0
O00193           N02557           OUT193           20.000     0.0130   0 0 0 0
O00194           N02567           OUT194           20.000     0.0130   0 0 0 0
O00195           N02568           OUT195           20.000     0.0130   0 0 0 0
O00196           N02570           OUT196           20.000     0.0130   0 0 0 0
O00197           N02582           OUT197           20.000     0.0130   0 0 0 0
O00198           N02589           OUT198           20.000     0.0130   0 0 0 0
O00199           N02596           OUT199           20.000     0.0130   0 0 0 0
O00200           N02599           OUT200           20.000     0.0130   0 0 0 0
O00201           N02608           OUT201           20.000     0.0130   0 0 0 0
O00202           N02640           OUT202           20.000     0.0130   0 0 0 0
O00203           N02646           OUT203           20.000     0.0130   0 0 0 0
O00204           N02655           OUT204           20.000     0.0130   0 0 0 0
O00205           N02687           OUT205           20.000     0.0130   0 0 0 0
O00206           N02688           OUT206           20.000     0.0130   0 0 0 0
O00207           N02721           OUT207           20.000     0.0130   0 0 0 0
O00208           N02724           OUT208           20.000     0.0130   0 0 0 0
O00209           N02726           OUT209           20.000     0.0130   0 0 0 0
O00210           N02742           OUT210           20.000     0.0130   0 0 0 0
O00211           N02774           OUT211           20.000     0.0130   0 0 0 0
O00212           N02786           OUT212           20.000     0.0130   0 0 0 0
O00213           N02787           OUT213           20.000     0.0130   0 0 0 0
O00214           N02800           OUT214           20.000     0.0130   0 0 0 0
O00215           N02809           OUT215           20.000     0.0130   0 0 0 0
O00216           N02815           OUT216           20.000     0.0130   0 0 0 0
O00217           N02817           OUT217           20.000     0.0130   0 0 0 0
O00218           N02820           OUT218           20.000     0.0130   0 0 0 0
O00219           N02825           OUT219           20.000     0.0130   0 0 0 0
O00220           N02841           OUT220           20.000     0.0130   0 0 0 0
O00221           N02846           OUT221           20.000     0.0130   0 0 0 0

[XSECTIONS]
G00001           CIRCULAR 0.800    0 0 0 1
G00002           CIRCULAR 0.800    0 0 0 1
G00003           CIRCULAR 0.800    0 0 0 1
G00004           CIRCULAR 0.800    0 0 0 1
G00005           CIRCULAR 0.800    0 0 0 1
G00006           CIRCULAR 0.800    0 0 0 1
G00007           CIRCULAR 1.200    0 0 0 1
G00008           CIRCULAR 1.200    0 0 0 1
G00009           CIRCULAR 0.800    0 0 0 1
G00010           CIRCULAR 0.800    0 0 0 1
G00011           CIRCULAR 0.800    0 0 0 1
G00012           CIRCULAR 0.800    0 0 0 1
G00013           CIRCULAR 0.800    0 0 0 1
G00014           CIRCULAR 0.800    0 0 0 1
G00015           CIRCULAR 0.800    0 0 0 1
G00016           CIRCULAR 0.800    0 0 0 1
G00017           CIRCULAR 0.800    0 0 0 1
G00018           CIRCULAR 0.800    0 0 0 1
G00019           CIRCULAR 0.800    0 0 0 1
G00020           CIRCULAR 0.800    0 0 0 1
G00021           CIRCULAR 0.800    0 0 0 1
G00022           CIRCULAR 0.800    0 0 0 1
G00023           CIRCULAR 1.000    0 0 0 1
G00024           CIRCULAR 0.800    0 0 0 1
G00025           CIRCULAR 0.800    0 0 0 1
G00026           CIRCULAR 0.800    0 0 0 1
G00027           CIRCULAR 0.800    0 0 0 1
G00028           CIRCULAR 0.800    0 0 0 1
G00029           CIRCULAR 0.800    0 0 0 1
G00030           CIRCULAR 0.800    0 0 0 1
G00031           CIRCULAR 0.800    0 0 0 1
G00032           CIRCULAR 0.800    0 0 0 1
G00033           CIRCULAR 0.800    0 0 0 1
G00034           CIRCULAR 0.800    0 0 0 1
G00035           CIRCULAR 0.800    0 0 0 1
G00036           CIRCULAR 0.800    0 0 0 1
G00037           CIRCULAR 0.800    0 0 0 1
G00038           CIRCULAR 0.800    0 0 0 1
G00039           CIRCULAR 0.800    0 0 0 1
G00040           CIRCULAR 0.800    0 0 0 1
G00041           CIRCULAR 0.800    0 0 0 1
G00042           CIRCULAR 0.800    0 0 0 1
G00043           CIRCULAR 0.800    0 0 0 1
G00044           CIRCULAR 0.800    0 0 0 1
G00045           CIRCULAR 0.800    0 0 0 1
G00046           CIRCULAR 0.800    0 0 0 1
G00047           CIRCULAR 0.800    0 0 0 1
G00048           CIRCULAR 0.800    0 0 0 1
G00049           CIRCULAR 0.800    0 0 0 1
G00050           CIRCULAR 0.800    0 0 0 1
G00051           CIRCULAR 0.800    0 0 0 1
G00052           CIRCULAR 0.800    0 0 0 1
G00053           CIRCULAR 0.800    0 0 0 1
G00054           CIRCULAR 0.800    0 0 0 1
G00055           CIRCULAR 0.800    0 0 0 1
G00056           CIRCULAR 0.800    0 0 0 1
G00057           CIRCULAR 0.800    0 0 0 1
G00058           CIRCULAR 0.800    0 0 0 1
G00059           CIRCULAR 1.000    0 0 0 1
G00060           CIRCULAR 0.800    0 0 0 1
G00061           CIRCULAR 1.000    0 0 0 1
G00062           CIRCULAR 1.000    0 0 0 1
G00063           CIRCULAR 0.800    0 0 0 1
G00064           CIRCULAR 1.000    0 0 0 1
G00065           CIRCULAR 0.800    0 0 0 1
G00066           CIRCULAR 1.200    0 0 0 1
G00067           CIRCULAR 1.200    0 0 0 1
G00068           CIRCULAR 0.800    0 0 0 1
G00069           CIRCULAR 0.800    0 0 0 1
G00070           CIRCULAR 0.800    0 0 0 1
G00071           CIRCULAR 1.000    0 0 0 1
G00072           CIRCULAR 0.800    0 0 0 1
G00073           CIRCULAR 1.200    0 0 0 1
G00074           CIRCULAR 1.000    0 0 0 1
G00075           CIRCULAR 1.000    0 0 0 1
G00076           CIRCULAR 1.200    0 0 0 1
G00077           CIRCULAR 0.800    0 0 0 1
G00078           CIRCULAR 0.800    0 0 0 1
G00079           CIRCULAR 0.800    0 0 0 1
G00080           CIRCULAR 0.800    0 0 0 1
G00081           CIRCULAR 0.800    0 0 0 1
G00082           CIRCULAR 0.800    0 0 0 1
G00083           CIRCULAR 0.800    0 0 0 1
G00084           CIRCULAR 0.800    0 0 0 1
G00085           CIRCULAR 0.800    0 0 0 1
G00086           CIRCULAR 0.800    0 0 0 1
G00087           CIRCULAR 0.800    0 0 0 1
G00088           CIRCULAR 0.800    0 0 0 1
G00089           CIRCULAR 0.800    0 0 0 1
G00090           CIRCULAR 0.800    0 0 0 1
G00091           CIRCULAR 0.800    0 0 0 1
G00092           CIRCULAR 0.800    0 0 0 1
G00093           CIRCULAR 0.800    0 0 0 1
G00094           CIRCULAR 0.800    0 0 0 1
G00095           CIRCULAR 0.800    0 0 0 1
G00096           CIRCULAR 0.800    0 0 0 1
G00097           CIRCULAR 0.800    0 0 0 1
G00098           CIRCULAR 0.800    0 0 0 1
G00099           CIRCULAR 0.800    0 0 0 1
G00100           CIRCULAR 0.800    0 0 0 1
G00101           CIRCULAR 0.800    0 0 0 1
G00102           CIRCULAR 0.800    0 0 0 1
G00103           CIRCULAR 0.800    0 0 0 1
G00104           CIRCULAR 0.800    0 0 0 1
G00105           CIRCULAR 0.800    0 0 0 1
G00106           CIRCULAR 0.800    0 0 0 1
G00107           CIRCULAR 1.000    0 0 0 1
G00108           CIRCULAR 0.800    0 0 0 1
G00109           CIRCULAR 0.800    0 0 0 1
G00110           CIRCULAR 0.800    0 0 0 1
G00111           CIRCULAR 0.800    0 0 0 1
G00112           CIRCULAR 0.800    0 0 0 1
G00113           CIRCULAR 0.800    0 0 0 1
G00114           CIRCULAR 0.800    0 0 0 1
G00115           CIRCULAR 0.800    0 0 0 1
G00116           CIRCULAR 0.800    0 0 0 1
G00117           CIRCULAR 0.800    0 0 0 1
G00118           CIRCULAR 1.000    0 0 0 1
G00119           CIRCULAR 0.800    0 0 0 1
G00120           CIRCULAR 0.800    0 0 0 1
G00121           CIRCULAR 0.800    0 0 0 1
G00122           CIRCULAR 0.800    0 0 0 1
G00123           CIRCULAR 0.800    0 0 0 1
G00124           CIRCULAR 0.800    0 0 0 1
G00125           CIRCULAR 0.800    0 0 0 1
G00126           CIRCULAR 0.800    0 0 0 1
G00127           CIRCULAR 0.800    0 0 0 1
G00128           CIRCULAR 0.800    0 0 0 1
G00129           CIRCULAR 0.800    0 0 0 1
G00130           CIRCULAR 0.800    0 0 0 1
G00131           CIRCULAR 0.800    0 0 0 1
G00132           CIRCULAR 1.000    0 0 0 1
G00133           CIRCULAR 0.800    0 0 0 1
G00134           CIRCULAR 0.800    0 0 0 1
G00135           CIRCULAR 0.800    0 0 0 1
G00136           CIRCULAR 0.800    0 0 0 1
G00137           CIRCULAR 0.800    0 0 0 1
G00138           CIRCULAR 0.800    0 0 0 1
G00139           CIRCULAR 0.800    0 0 0 1
G00140           CIRCULAR 0.800    0 0 0 1
G00141           CIRCULAR 0.800    0 0 0 1
G00142           CIRCULAR 0.800    0 0 0 1
G00143           CIRCULAR 0.800    0 0 0 1
G00144           CIRCULAR 0.800    0 0 0 1
G00145           CIRCULAR 0.800    0 0 0 1
G00146           CIRCULAR 0.800    0 0 0 1
G00147           CIRCULAR 0.800    0 0 0 1
G00148           CIRCULAR 0.800    0 0 0 1
G00149           CIRCULAR 0.800    0 0 0 1
G00150           CIRCULAR 0.800    0 0 0 1
G00151           CIRCULAR 0.800    0 0 0 1
G00152           CIRCULAR 0.800    0 0 0 1
G00153           CIRCULAR 1.000    0 0 0 1
G00154           CIRCULAR 0.800    0 0 0 1
G00155           CIRCULAR 0.800    0 0 0 1
G00156           CIRCULAR 0.800    0 0 0 1
G00157           CIRCULAR 0.800    0 0 0 1
G00158           CIRCULAR 0.800    0 0 0 1
G00159           CIRCULAR 0.800    0 0 0 1
G00160           CIRCULAR 1.000    0 0 0 1
G00161           CIRCULAR 1.000    0 0 0 1
G00162           CIRCULAR 0.800    0 0 0 1
G00163           CIRCULAR 0.800    0 0 0 1
G00164           CIRCULAR 0.800    0 0 0 1
G00165           CIRCULAR 0.800    0 0 0 1
G00166           CIRCULAR 0.800    0 0 0 1
G00167           CIRCULAR 0.800    0 0 0 1
G00168           CIRCULAR 0.800    0 0 0 1
G00169           CIRCULAR 0.800    0 0 0 1
G00170           CIRCULAR 0.800    0 0 0 1
G00171           CIRCULAR 0.800    0 0 0 1
G00172           CIRCULAR 0.800    0 0 0 1
G00173           CIRCULAR 1.000    0 0 0 1
G00174           CIRCULAR 1.000    0 0 0 1
G00175           CIRCULAR 0.800    0 0 0 1
G00176           CIRCULAR 0.800    0 0 0 1
G00177           CIRCULAR 0.800    0 0 0 1
G00178           CIRCULAR 0.800    0 0 0 1
G00179           CIRCULAR 0.800    0 0 0 1
G00180           CIRCULAR 0.800    0 0 0 1
G00181           CIRCULAR 0.800    0 0 0 1
G00182           CIRCULAR 0.800    0 0 0 1
G00183           CIRCULAR 0.800    0 0 0 1
G00184           CIRCULAR 0.800    0 0 0 1
G00185           CIRCULAR 0.800    0 0 0 1
G00186           CIRCULAR 0.800    0 0 0 1
G00187           CIRCULAR 1.000    0 0 0 1
G00188           CIRCULAR 0.800    0 0 0 1
G00189           CIRCULAR 0.800    0 0 0 1
G00190           CIRCULAR 0.800    0 0 0 1
G00191           CIRCULAR 1.000    0 0 0 1
G00192           CIRCULAR 0.800    0 0 0 1
G00193           CIRCULAR 0.800    0 0 0 1
G00194           CIRCULAR 0.800    0 0 0 1
G00195           CIRCULAR 0.800    0 0 0 1
G00196           CIRCULAR 0.800    0 0 0 1
G00197           CIRCULAR 0.800    0 0 0 1
G00198           CIRCULAR 0.800    0 0 0 1
G00199           CIRCULAR 0.800    0 0 0 1
G00200           CIRCULAR 0.800    0 0 0 1
G00201           CIRCULAR 0.800    0 0 0 1
G00202           CIRCULAR 0.800    0 0 0 1
G00203           CIRCULAR 0.800    0 0 0 1
G00204           CIRCULAR 0.800    0 0 0 1
G00205           CIRCULAR 0.800    0 0 0 1
G00206           CIRCULAR 0.800    0 0 0 1
G00207           CIRCULAR 0.800    0 0 0 1
G00208           CIRCULAR 0.800    0 0 0 1
G00209           CIRCULAR 0.800    0 0 0 1
G00210           CIRCULAR 0.800    0 0 0 1
G00211           CIRCULAR 0.800    0 0 0 1
G00212           CIRCULAR 0.800    0 0 0 1
G00213           CIRCULAR 0.800    0 0 0 1
G00214           CIRCULAR 0.800    0 0 0 1
G00215           CIRCULAR 0.800    0 0 0 1
G00216           CIRCULAR 0.800    0 0 0 1
G00217           CIRCULAR 0.800    0 0 0 1
G00218           CIRCULAR 0.800    0 0 0 1
G00219           CIRCULAR 0.800    0 0 0 1
G00220           CIRCULAR 0.800    0 0 0 1
G00221           CIRCULAR 0.800    0 0 0 1
G00222           CIRCULAR 0.800    0 0 0 1
G00223           CIRCULAR 1.000    0 0 0 1
G00224           CIRCULAR 0.800    0 0 0 1
G00225           CIRCULAR 0.800    0 0 0 1
G00226           CIRCULAR 0.800    0 0 0 1
G00227           CIRCULAR 0.800    0 0 0 1
G00228           CIRCULAR 1.000    0 0 0 1
G00229           CIRCULAR 1.000    0 0 0 1
G00230           CIRCULAR 0.800    0 0 0 1
G00231           CIRCULAR 0.800    0 0 0 1
G00232           CIRCULAR 0.800    0 0 0 1
G00233           CIRCULAR 0.800    0 0 0 1
G00234           CIRCULAR 0.800    0 0 0 1
G00235           CIRCULAR 0.800    0 0 0 1
G00236           CIRCULAR 0.800    0 0 0 1
G00237           CIRCULAR 0.800    0 0 0 1
G00238           CIRCULAR 0.800    0 0 0 1
G00239           CIRCULAR 0.800    0 0 0 1
G00240           CIRCULAR 0.800    0 0 0 1
G00241           CIRCULAR 0.800    0 0 0 1
G00242           CIRCULAR 0.800    0 0 0 1
G00243           CIRCULAR 1.000    0 0 0 1
G00244           CIRCULAR 0.800    0 0 0 1
G00245           CIRCULAR 0.800    0 0 0 1
G00246           CIRCULAR 0.800    0 0 0 1
G00247           CIRCULAR 0.800    0 0 0 1
G00248           CIRCULAR 0.800    0 0 0 1
G00249           CIRCULAR 0.800    0 0 0 1
G00250           CIRCULAR 0.800    0 0 0 1
G00251           CIRCULAR 0.800    0 0 0 1
G00252           CIRCULAR 0.800    0 0 0 1
G00253           CIRCULAR 0.800    0 0 0 1
G00254           CIRCULAR 0.800    0 0 0 1
G00255           CIRCULAR 0.800    0 0 0 1
G00256           CIRCULAR 0.800    0 0 0 1
G00257           CIRCULAR 0.800    0 0 0 1
G00258           CIRCULAR 0.800    0 0 0 1
G00259           CIRCULAR 0.800    0 0 0 1
G00260           CIRCULAR 0.800    0 0 0 1
G00261           CIRCULAR 0.800    0 0 0 1
G00262           CIRCULAR 1.200    0 0 0 1
G00263           CIRCULAR 0.800    0 0 0 1
G00264           CIRCULAR 0.800    0 0 0 1
G00265           CIRCULAR 1.200    0 0 0 1
G00266           CIRCULAR 1.200    0 0 0 1
G00267           CIRCULAR 1.200    0 0 0 1
G00268           CIRCULAR 0.800    0 0 0 1
G00269           CIRCULAR 0.800    0 0 0 1
G00270           CIRCULAR 0.800    0 0 0 1
G00271           CIRCULAR 0.800    0 0 0 1
G00272           CIRCULAR 1.000    0 0 0 1
G00273           CIRCULAR 0.800    0 0 0 1
G00274           CIRCULAR 0.800    0 0 0 1
G00275           CIRCULAR 0.800    0 0 0 1
G00276           CIRCULAR 0.800    0 0 0 1
G00277           CIRCULAR 0.800    0 0 0 1
G00278           CIRCULAR 0.800    0 0 0 1
G00279           CIRCULAR 0.800    0 0 0 1
G00280           CIRCULAR 0.800    0 0 0 1
G00281           CIRCULAR 0.800    0 0 0 1
G00282           CIRCULAR 1.000    0 0 0 1
G00283           CIRCULAR 0.800    0 0 0 1
G00284           CIRCULAR 0.800    0 0 0 1
G00285           CIRCULAR 0.800    0 0 0 1
G00286           CIRCULAR 0.800    0 0 0 1
G00287           CIRCULAR 0.800    0 0 0 1
G00288           CIRCULAR 0.800    0 0 0 1
G00289           CIRCULAR 0.800    0 0 0 1
G00290           CIRCULAR 0.800    0 0 0 1
G00291           CIRCULAR 0.800    0 0 0 1
G00292           CIRCULAR 0.800    0 0 0 1
G00293           CIRCULAR 0.800    0 0 0 1
G00294           CIRCULAR 0.800    0 0 0 1
G00295           CIRCULAR 0.800    0 0 0 1
G00296           CIRCULAR 0.800    0 0 0 1
G00297           CIRCULAR 0.800    0 0 0 1
G00298           CIRCULAR 0.800    0 0 0 1
G00299           CIRCULAR 0.800    0 0 0 1
G00300           CIRCULAR 0.800    0 0 0 1
G00301           CIRCULAR 0.800    0 0 0 1
G00302           CIRCULAR 0.800    0 0 0 1
G00303           CIRCULAR 0.800    0 0 0 1
G00304           CIRCULAR 0.800    0 0 0 1
G00305           CIRCULAR 0.800    0 0 0 1
G00306           CIRCULAR 0.800    0 0 0 1
G00307           CIRCULAR 1.000    0 0 0 1
G00308           CIRCULAR 0.800    0 0 0 1
G00309           CIRCULAR 0.800    0 0 0 1
G00310           CIRCULAR 0.800    0 0 0 1
G00311           CIRCULAR 0.800    0 0 0 1
G00312           CIRCULAR 0.800    0 0 0 1
G00313           CIRCULAR 0.800    0 0 0 1
G00314           CIRCULAR 1.000    0 0 0 1
G00315           CIRCULAR 0.800    0 0 0 1
G00316           CIRCULAR 0.800    0 0 0 1
G00317           CIRCULAR 0.800    0 0 0 1
G00318           CIRCULAR 0.800    0 0 0 1
G00319           CIRCULAR 0.800    0 0 0 1
G00320           CIRCULAR 0.800    0 0 0 1
G00321           CIRCULAR 0.800    0 0 0 1
G00322           CIRCULAR 0.800    0 0 0 1
G00323           CIRCULAR 0.800    0 0 0 1
G00324           CIRCULAR 0.800    0 0 0 1
G00325           CIRCULAR 0.800    0 0 0 1
G00326           CIRCULAR 0.800    0 0 0 1
G00327           CIRCULAR 0.800    0 0 0 1
G00328           CIRCULAR 0.800    0 0 0 1
G00329           CIRCULAR 0.800    0 0 0 1
G00330           CIRCULAR 0.800    0 0 0 1
G00331           CIRCULAR 0.800    0 0 0 1
G00332           CIRCULAR 0.800    0 0 0 1
G00333           CIRCULAR 0.800    0 0 0 1
G00334           CIRCULAR 0.800    0 0 0 1
G00335           CIRCULAR 0.800    0 0 0 1
G00336           CIRCULAR 0.800    0 0 0 1
G00337           CIRCULAR 0.800    0 0 0 1
G00338           CIRCULAR 0.800    0 0 0 1
G00339           CIRCULAR 0.800    0 0 0 1
G00340           CIRCULAR 0.800    0 0 0 1
G00341           CIRCULAR 0.800    0 0 0 1
G00342           CIRCULAR 0.800    0 0 0 1
G00343           CIRCULAR 0.800    0 0 0 1
G00344           CIRCULAR 0.800    0 0 0 1
G00345           CIRCULAR 0.800    0 0 0 1
G00346           CIRCULAR 0.800    0 0 0 1
G00347           CIRCULAR 0.800    0 0 0 1
G00348           CIRCULAR 0.800    0 0 0 1
G00349           CIRCULAR 0.800    0 0 0 1
G00350           CIRCULAR 0.800    0 0 0 1
G00351           CIRCULAR 0.800    0 0 0 1
G00352           CIRCULAR 0.800    0 0 0 1
G00353           CIRCULAR 0.800    0 0 0 1
G00354           CIRCULAR 0.800    0 0 0 1
G00355           CIRCULAR 0.800    0 0 0 1
G00356           CIRCULAR 0.800    0 0 0 1
G00357           CIRCULAR 0.800    0 0 0 1
G00358           CIRCULAR 0.800    0 0 0 1
G00359           CIRCULAR 0.800    0 0 0 1
G00360           CIRCULAR 0.800    0 0 0 1
G00361           CIRCULAR 0.800    0 0 0 1
G00362           CIRCULAR 0.800    0 0 0 1
G00363           CIRCULAR 0.800    0 0 0 1
G00364           CIRCULAR 0.800    0 0 0 1
G00365           CIRCULAR 0.800    0 0 0 1
G00366           CIRCULAR 0.800    0 0 0 1
G00367           CIRCULAR 0.800    0 0 0 1
G00368           CIRCULAR 0.800    0 0 0 1
G00369           CIRCULAR 0.800    0 0 0 1
G00370           CIRCULAR 0.800    0 0 0 1
G00371           CIRCULAR 1.000    0 0 0 1
G00372           CIRCULAR 0.800    0 0 0 1
G00373           CIRCULAR 0.800    0 0 0 1
G00374           CIRCULAR 1.000    0 0 0 1
G00375           CIRCULAR 0.800    0 0 0 1
G00376           CIRCULAR 1.000    0 0 0 1
G00377           CIRCULAR 1.000    0 0 0 1
G00378           CIRCULAR 0.800    0 0 0 1
G00379           CIRCULAR 1.000    0 0 0 1
G00380           CIRCULAR 0.800    0 0 0 1
G00381           CIRCULAR 0.800    0 0 0 1
G00382           CIRCULAR 0.800    0 0 0 1
G00383           CIRCULAR 0.800    0 0 0 1
G00384           CIRCULAR 0.800    0 0 0 1
G00385           CIRCULAR 1.000    0 0 0 1
G00386           CIRCULAR 1.000    0 0 0 1
G00387           CIRCULAR 1.000    0 0 0 1
G00388           CIRCULAR 0.800    0 0 0 1
G00389           CIRCULAR 1.000    0 0 0 1
G00390           CIRCULAR 1.000    0 0 0 1
G00391           CIRCULAR 1.000    0 0 0 1
G00392           CIRCULAR 0.800    0 0 0 1
G00393           CIRCULAR 0.800    0 0 0 1
G00394           CIRCULAR 0.800    0 0 0 1
G00395           CIRCULAR 0.800    0 0 0 1
G00396           CIRCULAR 0.800    0 0 0 1
G00397           CIRCULAR 1.000    0 0 0 1
G00398           CIRCULAR 0.800    0 0 0 1
G00399           CIRCULAR 0.800    0 0 0 1
G00400           CIRCULAR 1.000    0 0 0 1
G00401           CIRCULAR 0.800    0 0 0 1
G00402           CIRCULAR 0.800    0 0 0 1
G00403           CIRCULAR 0.800    0 0 0 1
G00404           CIRCULAR 0.800    0 0 0 1
G00405           CIRCULAR 0.800    0 0 0 1
G00406           CIRCULAR 0.800    0 0 0 1
G00407           CIRCULAR 0.800    0 0 0 1
G00408           CIRCULAR 0.800    0 0 0 1
G00409           CIRCULAR 0.800    0 0 0 1
G00410           CIRCULAR 0.800    0 0 0 1
G00411           CIRCULAR 0.800    0 0 0 1
G00412           CIRCULAR 0.800    0 0 0 1
G00413           CIRCULAR 0.800    0 0 0 1
G00414           CIRCULAR 0.800    0 0 0 1
G00415           CIRCULAR 0.800    0 0 0 1
G00416           CIRCULAR 0.800    0 0 0 1
G00417           CIRCULAR 0.800    0 0 0 1
G00418           CIRCULAR 0.800    0 0 0 1
G00419           CIRCULAR 0.800    0 0 0 1
G00420           CIRCULAR 0.800    0 0 0 1
G00421           CIRCULAR 0.800    0 0 0 1
G00422           CIRCULAR 1.000    0 0 0 1
G00423           CIRCULAR 0.800    0 0 0 1
G00424           CIRCULAR 0.800    0 0 0 1
G00425           CIRCULAR 0.800    0 0 0 1
G00426           CIRCULAR 0.800    0 0 0 1
G00427           CIRCULAR 0.800    0 0 0 1
G00428           CIRCULAR 0.800    0 0 0 1
G00429           CIRCULAR 0.800    0 0 0 1
G00430           CIRCULAR 0.800    0 0 0 1
G00431           CIRCULAR 0.800    0 0 0 1
G00432           CIRCULAR 0.800    0 0 0 1
G00433           CIRCULAR 0.800    0 0 0 1
G00434           CIRCULAR 0.800    0 0 0 1
G00435           CIRCULAR 0.800    0 0 0 1
G00436           CIRCULAR 0.800    0 0 0 1
G00437           CIRCULAR 0.800    0 0 0 1
G00438           CIRCULAR 0.800    0 0 0 1
G00439           CIRCULAR 0.800    0 0 0 1
G00440           CIRCULAR 0.800    0 0 0 1
G00441           CIRCULAR 0.800    0 0 0 1
G00442           CIRCULAR 0.800    0 0 0 1
G00443           CIRCULAR 1.000    0 0 0 1
G00444           CIRCULAR 0.800    0 0 0 1
G00445           CIRCULAR 0.800    0 0 0 1
G00446           CIRCULAR 0.800    0 0 0 1
G00447           CIRCULAR 0.800    0 0 0 1
G00448           CIRCULAR 0.800    0 0 0 1
G00449           CIRCULAR 0.800    0 0 0 1
G00450           CIRCULAR 0.800    0 0 0 1
G00451           CIRCULAR 0.800    0 0 0 1
G00452           CIRCULAR 0.800    0 0 0 1
G00453           CIRCULAR 0.800    0 0 0 1
G00454           CIRCULAR 0.800    0 0 0 1
G00455           CIRCULAR 0.800    0 0 0 1
G00456           CIRCULAR 0.800    0 0 0 1
G00457           CIRCULAR 0.800    0 0 0 1
G00458           CIRCULAR 0.800    0 0 0 1
G00459           CIRCULAR 0.800    0 0 0 1
G00460           CIRCULAR 0.800    0 0 0 1
G00461           CIRCULAR 0.800    0 0 0 1
G00462           CIRCULAR 0.800    0 0 0 1
G00463           CIRCULAR 0.800    0 0 0 1
G00464           CIRCULAR 0.800    0 0 0 1
G00465           CIRCULAR 0.800    0 0 0 1
G00466           CIRCULAR 0.800    0 0 0 1
G00467           CIRCULAR 0.800    0 0 0 1
G00468           CIRCULAR 1.000    0 0 0 1
G00469           CIRCULAR 1.000    0 0 0 1
G00470           CIRCULAR 0.800    0 0 0 1
G00471           CIRCULAR 0.800    0 0 0 1
G00472           CIRCULAR 0.800    0 0 0 1
G00473           CIRCULAR 0.800    0 0 0 1
G00474           CIRCULAR 0.800    0 0 0 1
G00475           CIRCULAR 1.000    0 0 0 1
G00476           CIRCULAR 0.800    0 0 0 1
G00477           CIRCULAR 0.800    0 0 0 1
G00478           CIRCULAR 0.800    0 0 0 1
G00479           CIRCULAR 0.800    0 0 0 1
G00480           CIRCULAR 0.800    0 0 0 1
G00481           CIRCULAR 0.800    0 0 0 1
G00482           CIRCULAR 0.800    0 0 0 1
G00483           CIRCULAR 0.800    0 0 0 1
G00484           CIRCULAR 0.800    0 0 0 1
G00485           CIRCULAR 0.800    0 0 0 1
G00486           CIRCULAR 0.800    0 0 0 1
G00487           CIRCULAR 0.800    0 0 0 1
G00488           CIRCULAR 0.800    0 0 0 1
G00489           CIRCULAR 0.800    0 0 0 1
G00490           CIRCULAR 0.800    0 0 0 1
G00491           CIRCULAR 0.800    0 0 0 1
G00492           CIRCULAR 0.800    0 0 0 1
G00493           CIRCULAR 0.800    0 0 0 1
G00494           CIRCULAR 0.800    0 0 0 1
G00495           CIRCULAR 0.800    0 0 0 1
G00496           CIRCULAR 0.800    0 0 0 1
G00497           CIRCULAR 0.800    0 0 0 1
G00498           CIRCULAR 0.800    0 0 0 1
G00499           CIRCULAR 0.800    0 0 0 1
G00500           CIRCULAR 0.800    0 0 0 1
G00501           CIRCULAR 0.800    0 0 0 1
G00502           CIRCULAR 0.800    0 0 0 1
G00503           CIRCULAR 0.800    0 0 0 1
G00504           CIRCULAR 0.800    0 0 0 1
G00505           CIRCULAR 0.800    0 0 0 1
G00506           CIRCULAR 0.800    0 0 0 1
G00507           CIRCULAR 0.800    0 0 0 1
G00508           CIRCULAR 0.800    0 0 0 1
G00509           CIRCULAR 0.800    0 0 0 1
G00510           CIRCULAR 0.800    0 0 0 1
G00511           CIRCULAR 0.800    0 0 0 1
G00512           CIRCULAR 0.800    0 0 0 1
G00513           CIRCULAR 0.800    0 0 0 1
G00514           CIRCULAR 0.800    0 0 0 1
G00515           CIRCULAR 0.800    0 0 0 1
G00516           CIRCULAR 0.800    0 0 0 1
G00517           CIRCULAR 0.800    0 0 0 1
G00518           CIRCULAR 0.800    0 0 0 1
G00519           CIRCULAR 0.800    0 0 0 1
G00520           CIRCULAR 0.800    0 0 0 1
G00521           CIRCULAR 0.800    0 0 0 1
G00522           CIRCULAR 0.800    0 0 0 1
G00523           CIRCULAR 0.800    0 0 0 1
G00524           CIRCULAR 0.800    0 0 0 1
G00525           CIRCULAR 0.800    0 0 0 1
G00526           CIRCULAR 0.800    0 0 0 1
G00527           CIRCULAR 0.800    0 0 0 1
G00528           CIRCULAR 0.800    0 0 0 1
G00529           CIRCULAR 0.800    0 0 0 1
G00530           CIRCULAR 0.800    0 0 0 1
G00531           CIRCULAR 0.800    0 0 0 1
G00532           CIRCULAR 0.800    0 0 0 1
G00533           CIRCULAR 0.800    0 0 0 1
G00534           CIRCULAR 1.000    0 0 0 1
G00535           CIRCULAR 1.000    0 0 0 1
G00536           CIRCULAR 1.000    0 0 0 1
G00537           CIRCULAR 0.800    0 0 0 1
G00538           CIRCULAR 0.800    0 0 0 1
G00539           CIRCULAR 0.800    0 0 0 1
G00540           CIRCULAR 0.800    0 0 0 1
G00541           CIRCULAR 0.800    0 0 0 1
G00542           CIRCULAR 0.800    0 0 0 1
G00543           CIRCULAR 0.800    0 0 0 1
G00544           CIRCULAR 0.800    0 0 0 1
G00545           CIRCULAR 1.200    0 0 0 1
G00546           CIRCULAR 1.200    0 0 0 1
G00547           CIRCULAR 0.800    0 0 0 1
G00548           CIRCULAR 0.800    0 0 0 1
G00549           CIRCULAR 0.800    0 0 0 1
G00550           CIRCULAR 1.200    0 0 0 1
G00551           CIRCULAR 0.800    0 0 0 1
G00552           CIRCULAR 0.800    0 0 0 1
G00553           CIRCULAR 0.800    0 0 0 1
G00554           CIRCULAR 0.800    0 0 0 1
G00555           CIRCULAR 0.800    0 0 0 1
G00556           CIRCULAR 0.800    0 0 0 1
G00557           CIRCULAR 0.800    0 0 0 1
G00558           CIRCULAR 0.800    0 0 0 1
G00559           CIRCULAR 0.800    0 0 0 1
G00560           CIRCULAR 0.800    0 0 0 1
G00561           CIRCULAR 0.800    0 0 0 1
G00562           CIRCULAR 0.800    0 0 0 1
G00563           CIRCULAR 0.800    0 0 0 1
G00564           CIRCULAR 0.800    0 0 0 1
G00565           CIRCULAR 0.800    0 0 0 1
G00566           CIRCULAR 0.800    0 0 0 1
G00567           CIRCULAR 1.000    0 0 0 1
G00568           CIRCULAR 0.800    0 0 0 1
G00569           CIRCULAR 0.800    0 0 0 1
G00570           CIRCULAR 0.800    0 0 0 1
G00571           CIRCULAR 0.800    0 0 0 1
G00572           CIRCULAR 0.800    0 0 0 1
G00573           CIRCULAR 1.000    0 0 0 1
G00574           CIRCULAR 0.800    0 0 0 1
G00575           CIRCULAR 0.800    0 0 0 1
G00576           CIRCULAR 0.800    0 0 0 1
G00577           CIRCULAR 0.800    0 0 0 1
G00578           CIRCULAR 0.800    0 0 0 1
G00579           CIRCULAR 0.800    0 0 0 1
G00580           CIRCULAR 0.800    0 0 0 1
G00581           CIRCULAR 0.800    0 0 0 1
G00582           CIRCULAR 0.800    0 0 0 1
G00583           CIRCULAR 1.000    0 0 0 1
G00584           CIRCULAR 1.000    0 0 0 1
G00585           CIRCULAR 1.000    0 0 0 1
G00586           CIRCULAR 0.800    0 0 0 1
G00587           CIRCULAR 0.800    0 0 0 1
G00588           CIRCULAR 0.800    0 0 0 1
G00589           CIRCULAR 0.800    0 0 0 1
G00590           CIRCULAR 0.800    0 0 0 1
G00591           CIRCULAR 0.800    0 0 0 1
G00592           CIRCULAR 0.800    0 0 0 1
G00593           CIRCULAR 0.800    0 0 0 1
G00594           CIRCULAR 0.800    0 0 0 1
G00595           CIRCULAR 0.800    0 0 0 1
G00596           CIRCULAR 0.800    0 0 0 1
G00597           CIRCULAR 0.800    0 0 0 1
G00598           CIRCULAR 0.800    0 0 0 1
G00599           CIRCULAR 0.800    0 0 0 1
G00600           CIRCULAR 0.800    0 0 0 1
G00601           CIRCULAR 0.800    0 0 0 1
G00602           CIRCULAR 0.800    0 0 0 1
G00603           CIRCULAR 0.800    0 0 0 1
G00604           CIRCULAR 0.800    0 0 0 1
G00605           CIRCULAR 0.800    0 0 0 1
G00606           CIRCULAR 0.800    0 0 0 1
G00607           CIRCULAR 0.800    0 0 0 1
G00608           CIRCULAR 0.800    0 0 0 1
G00609           CIRCULAR 0.800    0 0 0 1
G00610           CIRCULAR 0.800    0 0 0 1
G00611           CIRCULAR 1.000    0 0 0 1
G00612           CIRCULAR 0.800    0 0 0 1
G00613           CIRCULAR 0.800    0 0 0 1
G00614           CIRCULAR 0.800    0 0 0 1
G00615           CIRCULAR 0.800    0 0 0 1
G00616           CIRCULAR 0.800    0 0 0 1
G00617           CIRCULAR 0.800    0 0 0 1
G00618           CIRCULAR 0.800    0 0 0 1
G00619           CIRCULAR 0.800    0 0 0 1
G00620           CIRCULAR 0.800    0 0 0 1
G00621           CIRCULAR 0.800    0 0 0 1
G00622           CIRCULAR 0.800    0 0 0 1
G00623           CIRCULAR 1.000    0 0 0 1
G00624           CIRCULAR 0.800    0 0 0 1
G00625           CIRCULAR 0.800    0 0 0 1
G00626           CIRCULAR 0.800    0 0 0 1
G00627           CIRCULAR 0.800    0 0 0 1
G00628           CIRCULAR 0.800    0 0 0 1
G00629           CIRCULAR 0.800    0 0 0 1
G00630           CIRCULAR 1.000    0 0 0 1
G00631           CIRCULAR 0.800    0 0 0 1
G00632           CIRCULAR 0.800    0 0 0 1
G00633           CIRCULAR 0.800    0 0 0 1
G00634           CIRCULAR 0.800    0 0 0 1
G00635           CIRCULAR 0.800    0 0 0 1
G00636           CIRCULAR 0.800    0 0 0 1
G00637           CIRCULAR 0.800    0 0 0 1
G00638           CIRCULAR 0.800    0 0 0 1
G00639           CIRCULAR 1.000    0 0 0 1
G00640           CIRCULAR 1.000    0 0 0 1
G00641           CIRCULAR 1.000    0 0 0 1
G00642           CIRCULAR 0.800    0 0 0 1
G00643           CIRCULAR 0.800    0 0 0 1
G00644           CIRCULAR 0.800    0 0 0 1
G00645           CIRCULAR 0.800    0 0 0 1
G00646           CIRCULAR 1.000    0 0 0 1
G00647           CIRCULAR 1.000    0 0 0 1
G00648           CIRCULAR 1.000    0 0 0 1
G00649           CIRCULAR 1.000    0 0 0 1
G00650           CIRCULAR 0.800    0 0 0 1
G00651           CIRCULAR 1.000    0 0 0 1
G00652           CIRCULAR 0.800    0 0 0 1
G00653           CIRCULAR 0.800    0 0 0 1
G00654           CIRCULAR 0.800    0 0 0 1
G00655           CIRCULAR 0.800    0 0 0 1
G00656           CIRCULAR 0.800    0 0 0 1
G00657           CIRCULAR 1.000    0 0 0 1
G00658           CIRCULAR 0.800    0 0 0 1
G00659           CIRCULAR 0.800    0 0 0 1
G00660           CIRCULAR 0.800    0 0 0 1
G00661           CIRCULAR 0.800    0 0 0 1
G00662           CIRCULAR 0.800    0 0 0 1
G00663           CIRCULAR 0.800    0 0 0 1
G00664           CIRCULAR 0.800    0 0 0 1
G00665           CIRCULAR 0.800    0 0 0 1
G00666           CIRCULAR 0.800    0 0 0 1
G00667           CIRCULAR 0.800    0 0 0 1
G00668           CIRCULAR 0.800    0 0 0 1
G00669           CIRCULAR 0.800    0 0 0 1
G00670           CIRCULAR 0.800    0 0 0 1
G00671           CIRCULAR 0.800    0 0 0 1
G00672           CIRCULAR 0.800    0 0 0 1
G00673           CIRCULAR 0.800    0 0 0 1
G00674           CIRCULAR 0.800    0 0 0 1
G00675           CIRCULAR 0.800    0 0 0 1
G00676           CIRCULAR 0.800    0 0 0 1
G00677           CIRCULAR 0.800    0 0 0 1
G00678           CIRCULAR 0.800    0 0 0 1
G00679           CIRCULAR 1.000    0 0 0 1
G00680           CIRCULAR 1.000    0 0 0 1
G00681           CIRCULAR 0.800    0 0 0 1
G00682           CIRCULAR 0.800    0 0 0 1
G00683           CIRCULAR 0.800    0 0 0 1
G00684           CIRCULAR 0.800    0 0 0 1
G00685           CIRCULAR 0.800    0 0 0 1
G00686           CIRCULAR 0.800    0 0 0 1
G00687           CIRCULAR 0.800    0 0 0 1
G00688           CIRCULAR 0.800    0 0 0 1
G00689           CIRCULAR 0.800    0 0 0 1
G00690           CIRCULAR 0.800    0 0 0 1
G00691           CIRCULAR 0.800    0 0 0 1
G00692           CIRCULAR 0.800    0 0 0 1
G00693           CIRCULAR 0.800    0 0 0 1
G00694           CIRCULAR 1.000    0 0 0 1
G00695           CIRCULAR 0.800    0 0 0 1
G00696           CIRCULAR 0.800    0 0 0 1
G00697           CIRCULAR 0.800    0 0 0 1
G00698           CIRCULAR 0.800    0 0 0 1
G00699           CIRCULAR 0.800    0 0 0 1
G00700           CIRCULAR 0.800    0 0 0 1
G00701           CIRCULAR 0.800    0 0 0 1
G00702           CIRCULAR 0.800    0 0 0 1
G00703           CIRCULAR 0.800    0 0 0 1
G00704           CIRCULAR 0.800    0 0 0 1
G00705           CIRCULAR 0.800    0 0 0 1
G00706           CIRCULAR 0.800    0 0 0 1
G00707           CIRCULAR 0.800    0 0 0 1
G00708           CIRCULAR 0.800    0 0 0 1
G00709           CIRCULAR 1.000    0 0 0 1
G00710           CIRCULAR 1.000    0 0 0 1
G00711           CIRCULAR 0.800    0 0 0 1
G00712           CIRCULAR 0.800    0 0 0 1
G00713           CIRCULAR 0.800    0 0 0 1
G00714           CIRCULAR 0.800    0 0 0 1
G00715           CIRCULAR 1.000    0 0 0 1
G00716           CIRCULAR 1.000    0 0 0 1
G00717           CIRCULAR 0.800    0 0 0 1
G00718           CIRCULAR 0.800    0 0 0 1
G00719           CIRCULAR 0.800    0 0 0 1
G00720           CIRCULAR 0.800    0 0 0 1
G00721           CIRCULAR 0.800    0 0 0 1
G00722           CIRCULAR 0.800    0 0 0 1
G00723           CIRCULAR 0.800    0 0 0 1
G00724           CIRCULAR 0.800    0 0 0 1
G00725           CIRCULAR 0.800    0 0 0 1
G00726           CIRCULAR 0.800    0 0 0 1
G00727           CIRCULAR 0.800    0 0 0 1
G00728           CIRCULAR 1.000    0 0 0 1
G00729           CIRCULAR 0.800    0 0 0 1
G00730           CIRCULAR 0.800    0 0 0 1
G00731           CIRCULAR 0.800    0 0 0 1
G00732           CIRCULAR 0.800    0 0 0 1
G00733           CIRCULAR 0.800    0 0 0 1
G00734           CIRCULAR 0.800    0 0 0 1
G00735           CIRCULAR 0.800    0 0 0 1
G00736           CIRCULAR 0.800    0 0 0 1
G00737           CIRCULAR 0.800    0 0 0 1
G00738           CIRCULAR 0.800    0 0 0 1
G00739           CIRCULAR 0.800    0 0 0 1
G00740           CIRCULAR 1.000    0 0 0 1
G00741           CIRCULAR 0.800    0 0 0 1
G00742           CIRCULAR 0.800    0 0 0 1
G00743           CIRCULAR 0.800    0 0 0 1
G00744           CIRCULAR 0.800    0 0 0 1
G00745           CIRCULAR 1.000    0 0 0 1
G00746           CIRCULAR 0.800    0 0 0 1
G00747           CIRCULAR 0.800    0 0 0 1
G00748           CIRCULAR 0.800    0 0 0 1
G00749           CIRCULAR 0.800    0 0 0 1
G00750           CIRCULAR 0.800    0 0 0 1
G00751           CIRCULAR 1.200    0 0 0 1
G00752           CIRCULAR 1.000    0 0 0 1
G00753           CIRCULAR 0.800    0 0 0 1
G00754           CIRCULAR 0.800    0 0 0 1
G00755           CIRCULAR 0.800    0 0 0 1
G00756           CIRCULAR 0.800    0 0 0 1
G00757           CIRCULAR 0.800    0 0 0 1
G00758           CIRCULAR 1.000    0 0 0 1
G00759           CIRCULAR 1.000    0 0 0 1
G00760           CIRCULAR 1.000    0 0 0 1
G00761           CIRCULAR 0.800    0 0 0 1
G00762           CIRCULAR 0.800    0 0 0 1
G00763           CIRCULAR 0.800    0 0 0 1
G00764           CIRCULAR 0.800    0 0 0 1
G00765           CIRCULAR 1.000    0 0 0 1
G00766           CIRCULAR 0.800    0 0 0 1
G00767           CIRCULAR 0.800    0 0 0 1
G00768           CIRCULAR 0.800    0 0 0 1
G00769           CIRCULAR 0.800    0 0 0 1
G00770           CIRCULAR 1.000    0 0 0 1
G00771           CIRCULAR 0.800    0 0 0 1
G00772           CIRCULAR 0.800    0 0 0 1
G00773           CIRCULAR 0.800    0 0 0 1
G00774           CIRCULAR 0.800    0 0 0 1
G00775           CIRCULAR 0.800    0 0 0 1
G00776           CIRCULAR 0.800    0 0 0 1
G00777           CIRCULAR 0.800    0 0 0 1
G00778           CIRCULAR 0.800    0 0 0 1
G00779           CIRCULAR 0.800    0 0 0 1
G00780           CIRCULAR 0.800    0 0 0 1
G00781           CIRCULAR 0.800    0 0 0 1
G00782           CIRCULAR 0.800    0 0 0 1
G00783           CIRCULAR 0.800    0 0 0 1
G00784           CIRCULAR 0.800    0 0 0 1
G00785           CIRCULAR 0.800    0 0 0 1
G00786           CIRCULAR 0.800    0 0 0 1
G00787           CIRCULAR 0.800    0 0 0 1
G00788           CIRCULAR 0.800    0 0 0 1
G00789           CIRCULAR 0.800    0 0 0 1
G00790           CIRCULAR 0.800    0 0 0 1
G00791           CIRCULAR 0.800    0 0 0 1
G00792           CIRCULAR 0.800    0 0 0 1
G00793           CIRCULAR 0.800    0 0 0 1
G00794           CIRCULAR 0.800    0 0 0 1
G00795           CIRCULAR 0.800    0 0 0 1
G00796           CIRCULAR 0.800    0 0 0 1
G00797           CIRCULAR 0.800    0 0 0 1
G00798           CIRCULAR 0.800    0 0 0 1
G00799           CIRCULAR 0.800    0 0 0 1
G00800           CIRCULAR 0.800    0 0 0 1
G00801           CIRCULAR 1.000    0 0 0 1
G00802           CIRCULAR 1.000    0 0 0 1
G00803           CIRCULAR 1.000    0 0 0 1
G00804           CIRCULAR 0.800    0 0 0 1
G00805           CIRCULAR 1.000    0 0 0 1
G00806           CIRCULAR 0.800    0 0 0 1
G00807           CIRCULAR 0.800    0 0 0 1
G00808           CIRCULAR 0.800    0 0 0 1
G00809           CIRCULAR 0.800    0 0 0 1
G00810           CIRCULAR 0.800    0 0 0 1
G00811           CIRCULAR 0.800    0 0 0 1
G00812           CIRCULAR 0.800    0 0 0 1
G00813           CIRCULAR 0.800    0 0 0 1
G00814           CIRCULAR 0.800    0 0 0 1
G00815           CIRCULAR 0.800    0 0 0 1
G00816           CIRCULAR 0.800    0 0 0 1
G00817           CIRCULAR 0.800    0 0 0 1
G00818           CIRCULAR 0.800    0 0 0 1
G00819           CIRCULAR 0.800    0 0 0 1
G00820           CIRCULAR 0.800    0 0 0 1
G00821           CIRCULAR 0.800    0 0 0 1
G00822           CIRCULAR 0.800    0 0 0 1
G00823           CIRCULAR 0.800    0 0 0 1
G00824           CIRCULAR 0.800    0 0 0 1
G00825           CIRCULAR 0.800    0 0 0 1
G00826           CIRCULAR 0.800    0 0 0 1
G00827           CIRCULAR 1.000    0 0 0 1
G00828           CIRCULAR 0.800    0 0 0 1
G00829           CIRCULAR 0.800    0 0 0 1
G00830           CIRCULAR 0.800    0 0 0 1
G00831           CIRCULAR 0.800    0 0 0 1
G00832           CIRCULAR 0.800    0 0 0 1
G00833           CIRCULAR 0.800    0 0 0 1
G00834           CIRCULAR 0.800    0 0 0 1
G00835           CIRCULAR 0.800    0 0 0 1
G00836           CIRCULAR 1.000    0 0 0 1
G00837           CIRCULAR 0.800    0 0 0 1
G00838           CIRCULAR 0.800    0 0 0 1
G00839           CIRCULAR 0.800    0 0 0 1
G00840           CIRCULAR 0.800    0 0 0 1
G00841           CIRCULAR 0.800    0 0 0 1
G00842           CIRCULAR 0.800    0 0 0 1
G00843           CIRCULAR 0.800    0 0 0 1
G00844           CIRCULAR 0.800    0 0 0 1
G00845           CIRCULAR 0.800    0 0 0 1
G00846           CIRCULAR 0.800    0 0 0 1
G00847           CIRCULAR 0.800    0 0 0 1
G00848           CIRCULAR 0.800    0 0 0 1
G00849           CIRCULAR 0.800    0 0 0 1
G00850           CIRCULAR 0.800    0 0 0 1
G00851           CIRCULAR 0.800    0 0 0 1
G00852           CIRCULAR 1.000    0 0 0 1
G00853           CIRCULAR 1.000    0 0 0 1
G00854           CIRCULAR 0.800    0 0 0 1
G00855           CIRCULAR 0.800    0 0 0 1
G00856           CIRCULAR 0.800    0 0 0 1
G00857           CIRCULAR 0.800    0 0 0 1
G00858           CIRCULAR 0.800    0 0 0 1
G00859           CIRCULAR 0.800    0 0 0 1
G00860           CIRCULAR 0.800    0 0 0 1
G00861           CIRCULAR 0.800    0 0 0 1
G00862           CIRCULAR 0.800    0 0 0 1
G00863           CIRCULAR 0.800    0 0 0 1
G00864           CIRCULAR 0.800    0 0 0 1
G00865           CIRCULAR 0.800    0 0 0 1
G00866           CIRCULAR 0.800    0 0 0 1
G00867           CIRCULAR 0.800    0 0 0 1
G00868           CIRCULAR 0.800    0 0 0 1
G00869           CIRCULAR 1.000    0 0 0 1
G00870           CIRCULAR 1.000    0 0 0 1
G00871           CIRCULAR 0.800    0 0 0 1
G00872           CIRCULAR 1.200    0 0 0 1
G00873           CIRCULAR 0.800    0 0 0 1
G00874           CIRCULAR 1.200    0 0 0 1
G00875           CIRCULAR 1.200    0 0 0 1
G00876           CIRCULAR 1.200    0 0 0 1
G00877           CIRCULAR 0.800    0 0 0 1
G00878           CIRCULAR 0.800    0 0 0 1
G00879           CIRCULAR 0.800    0 0 0 1
G00880           CIRCULAR 0.800    0 0 0 1
G00881           CIRCULAR 0.800    0 0 0 1
G00882           CIRCULAR 0.800    0 0 0 1
G00883           CIRCULAR 0.800    0 0 0 1
G00884           CIRCULAR 0.800    0 0 0 1
G00885           CIRCULAR 0.800    0 0 0 1
G00886           CIRCULAR 1.000    0 0 0 1
G00887           CIRCULAR 1.000    0 0 0 1
G00888           CIRCULAR 0.800    0 0 0 1
G00889           CIRCULAR 0.800    0 0 0 1
G00890           CIRCULAR 0.800    0 0 0 1
G00891           CIRCULAR 0.800    0 0 0 1
G00892           CIRCULAR 0.800    0 0 0 1
G00893           CIRCULAR 0.800    0 0 0 1
G00894           CIRCULAR 0.800    0 0 0 1
G00895           CIRCULAR 0.800    0 0 0 1
G00896           CIRCULAR 0.800    0 0 0 1
G00897           CIRCULAR 0.800    0 0 0 1
G00898           CIRCULAR 0.800    0 0 0 1
G00899           CIRCULAR 0.800    0 0 0 1
G00900           CIRCULAR 0.800    0 0 0 1
G00901           CIRCULAR 0.800    0 0 0 1
G00902           CIRCULAR 0.800    0 0 0 1
G00903           CIRCULAR 0.800    0 0 0 1
G00904           CIRCULAR 0.800    0 0 0 1
G00905           CIRCULAR 0.800    0 0 0 1
G00906           CIRCULAR 0.800    0 0 0 1
G00907           CIRCULAR 0.800    0 0 0 1
G00908           CIRCULAR 0.800    0 0 0 1
G00909           CIRCULAR 0.800    0 0 0 1
G00910           CIRCULAR 0.800    0 0 0 1
G00911           CIRCULAR 0.800    0 0 0 1
G00912           CIRCULAR 0.800    0 0 0 1
G00913           CIRCULAR 1.000    0 0 0 1
G00914           CIRCULAR 1.000    0 0 0 1
G00915           CIRCULAR 1.000    0 0 0 1
G00916           CIRCULAR 1.000    0 0 0 1
G00917           CIRCULAR 0.800    0 0 0 1
G00918           CIRCULAR 0.800    0 0 0 1
G00919           CIRCULAR 1.000    0 0 0 1
G00920           CIRCULAR 0.800    0 0 0 1
G00921           CIRCULAR 1.000    0 0 0 1
G00922           CIRCULAR 0.800    0 0 0 1
G00923           CIRCULAR 1.000    0 0 0 1
G00924           CIRCULAR 1.000    0 0 0 1
G00925           CIRCULAR 0.800    0 0 0 1
G00926           CIRCULAR 0.800    0 0 0 1
G00927           CIRCULAR 0.800    0 0 0 1
G00928           CIRCULAR 0.800    0 0 0 1
G00929           CIRCULAR 0.800    0 0 0 1
G00930           CIRCULAR 1.000    0 0 0 1
G00931           CIRCULAR 0.800    0 0 0 1
G00932           CIRCULAR 0.800    0 0 0 1
G00933           CIRCULAR 0.800    0 0 0 1
G00934           CIRCULAR 0.800    0 0 0 1
G00935           CIRCULAR 0.800    0 0 0 1
G00936           CIRCULAR 1.000    0 0 0 1
G00937           CIRCULAR 0.800    0 0 0 1
G00938           CIRCULAR 0.800    0 0 0 1
G00939           CIRCULAR 0.800    0 0 0 1
G00940           CIRCULAR 0.800    0 0 0 1
G00941           CIRCULAR 0.800    0 0 0 1
G00942           CIRCULAR 0.800    0 0 0 1
G00943           CIRCULAR 0.800    0 0 0 1
G00944           CIRCULAR 0.800    0 0 0 1
G00945           CIRCULAR 0.800    0 0 0 1
G00946           CIRCULAR 0.800    0 0 0 1
G00947           CIRCULAR 0.800    0 0 0 1
G00948           CIRCULAR 0.800    0 0 0 1
G00949           CIRCULAR 0.800    0 0 0 1
G00950           CIRCULAR 0.800    0 0 0 1
G00951           CIRCULAR 0.800    0 0 0 1
G00952           CIRCULAR 0.800    0 0 0 1
G00953           CIRCULAR 1.000    0 0 0 1
G00954           CIRCULAR 0.800    0 0 0 1
G00955           CIRCULAR 0.800    0 0 0 1
G00956           CIRCULAR 0.800    0 0 0 1
G00957           CIRCULAR 0.800    0 0 0 1
G00958           CIRCULAR 1.200    0 0 0 1
G00959           CIRCULAR 0.800    0 0 0 1
G00960           CIRCULAR 0.800    0 0 0 1
G00961           CIRCULAR 0.800    0 0 0 1
G00962           CIRCULAR 0.800    0 0 0 1
G00963           CIRCULAR 0.800    0 0 0 1
G00964           CIRCULAR 0.800    0 0 0 1
G00965           CIRCULAR 0.800    0 0 0 1
G00966           CIRCULAR 0.800    0 0 0 1
G00967           CIRCULAR 0.800    0 0 0 1
G00968           CIRCULAR 0.800    0 0 0 1
G00969           CIRCULAR 0.800    0 0 0 1
G00970           CIRCULAR 0.800    0 0 0 1
G00971           CIRCULAR 0.800    0 0 0 1
G00972           CIRCULAR 0.800    0 0 0 1
G00973           CIRCULAR 0.800    0 0 0 1
G00974           CIRCULAR 0.800    0 0 0 1
G00975           CIRCULAR 1.000    0 0 0 1
G00976           CIRCULAR 1.000    0 0 0 1
G00977           CIRCULAR 0.800    0 0 0 1
G00978           CIRCULAR 0.800    0 0 0 1
G00979           CIRCULAR 0.800    0 0 0 1
G00980           CIRCULAR 0.800    0 0 0 1
G00981           CIRCULAR 0.800    0 0 0 1
G00982           CIRCULAR 0.800    0 0 0 1
G00983           CIRCULAR 0.800    0 0 0 1
G00984           CIRCULAR 0.800    0 0 0 1
G00985           CIRCULAR 0.800    0 0 0 1
G00986           CIRCULAR 0.800    0 0 0 1
G00987           CIRCULAR 0.800    0 0 0 1
G00988           CIRCULAR 0.800    0 0 0 1
G00989           CIRCULAR 1.000    0 0 0 1
G00990           CIRCULAR 1.000    0 0 0 1
G00991           CIRCULAR 0.800    0 0 0 1
G00992           CIRCULAR 1.200    0 0 0 1
G00993           CIRCULAR 1.200    0 0 0 1
G00994           CIRCULAR 0.800    0 0 0 1
G00995           CIRCULAR 0.800    0 0 0 1
G00996           CIRCULAR 0.800    0 0 0 1
G00997           CIRCULAR 0.800    0 0 0 1
G00998           CIRCULAR 0.800    0 0 0 1
G00999           CIRCULAR 0.800    0 0 0 1
G01000           CIRCULAR 0.800    0 0 0 1
G01001           CIRCULAR 0.800    0 0 0 1
G01002           CIRCULAR 0.800    0 0 0 1
G01003           CIRCULAR 0.800    0 0 0 1
G01004           CIRCULAR 0.800    0 0 0 1
G01005           CIRCULAR 0.800    0 0 0 1
G01006           CIRCULAR 0.800    0 0 0 1
G01007           CIRCULAR 0.800    0 0 0 1
G01008           CIRCULAR 0.800    0 0 0 1
G01009           CIRCULAR 0.800    0 0 0 1
G01010           CIRCULAR 1.000    0 0 0 1
G01011           CIRCULAR 0.800    0 0 0 1
G01012           CIRCULAR 0.800    0 0 0 1
G01013           CIRCULAR 0.800    0 0 0 1
G01014           CIRCULAR 0.800    0 0 0 1
G01015           CIRCULAR 0.800    0 0 0 1
G01016           CIRCULAR 0.800    0 0 0 1
G01017           CIRCULAR 0.800    0 0 0 1
G01018           CIRCULAR 0.800    0 0 0 1
G01019           CIRCULAR 0.800    0 0 0 1
G01020           CIRCULAR 1.000    0 0 0 1
G01021           CIRCULAR 0.800    0 0 0 1
G01022           CIRCULAR 0.800    0 0 0 1
G01023           CIRCULAR 0.800    0 0 0 1
G01024           CIRCULAR 0.800    0 0 0 1
G01025           CIRCULAR 0.800    0 0 0 1
G01026           CIRCULAR 0.800    0 0 0 1
G01027           CIRCULAR 0.800    0 0 0 1
G01028           CIRCULAR 1.000    0 0 0 1
G01029           CIRCULAR 1.000    0 0 0 1
G01030           CIRCULAR 0.800    0 0 0 1
G01031           CIRCULAR 0.800    0 0 0 1
G01032           CIRCULAR 0.800    0 0 0 1
G01033           CIRCULAR 0.800    0 0 0 1
G01034           CIRCULAR 0.800    0 0 0 1
G01035           CIRCULAR 0.800    0 0 0 1
G01036           CIRCULAR 0.800    0 0 0 1
G01037           CIRCULAR 0.800    0 0 0 1
G01038           CIRCULAR 0.800    0 0 0 1
G01039           CIRCULAR 0.800    0 0 0 1
G01040           CIRCULAR 0.800    0 0 0 1
G01041           CIRCULAR 0.800    0 0 0 1
G01042           CIRCULAR 0.800    0 0 0 1
G01043           CIRCULAR 0.800    0 0 0 1
G01044           CIRCULAR 0.800    0 0 0 1
G01045           CIRCULAR 0.800    0 0 0 1
G01046           CIRCULAR 1.000    0 0 0 1
G01047           CIRCULAR 0.800    0 0 0 1
G01048           CIRCULAR 0.800    0 0 0 1
G01049           CIRCULAR 0.800    0 0 0 1
G01050           CIRCULAR 0.800    0 0 0 1
G01051           CIRCULAR 0.800    0 0 0 1
G01052           CIRCULAR 0.800    0 0 0 1
G01053           CIRCULAR 1.000    0 0 0 1
G01054           CIRCULAR 0.800    0 0 0 1
G01055           CIRCULAR 0.800    0 0 0 1
G01056           CIRCULAR 0.800    0 0 0 1
G01057           CIRCULAR 0.800    0 0 0 1
G01058           CIRCULAR 0.800    0 0 0 1
G01059           CIRCULAR 0.800    0 0 0 1
G01060           CIRCULAR 0.800    0 0 0 1
G01061           CIRCULAR 0.800    0 0 0 1
G01062           CIRCULAR 0.800    0 0 0 1
G01063           CIRCULAR 0.800    0 0 0 1
G01064           CIRCULAR 0.800    0 0 0 1
G01065           CIRCULAR 0.800    0 0 0 1
G01066           CIRCULAR 0.800    0 0 0 1
G01067           CIRCULAR 0.800    0 0 0 1
G01068           CIRCULAR 0.800    0 0 0 1
G01069           CIRCULAR 0.800    0 0 0 1
G01070           CIRCULAR 0.800    0 0 0 1
G01071           CIRCULAR 0.800    0 0 0 1
G01072           CIRCULAR 1.000    0 0 0 1
G01073           CIRCULAR 0.800    0 0 0 1
G01074           CIRCULAR 0.800    0 0 0 1
G01075           CIRCULAR 0.800    0 0 0 1
G01076           CIRCULAR 0.800    0 0 0 1
G01077           CIRCULAR 0.800    0 0 0 1
G01078           CIRCULAR 0.800    0 0 0 1
G01079           CIRCULAR 0.800    0 0 0 1
G01080           CIRCULAR 0.800    0 0 0 1
G01081           CIRCULAR 0.800    0 0 0 1
G01082           CIRCULAR 0.800    0 0 0 1
G01083           CIRCULAR 0.800    0 0 0 1
G01084           CIRCULAR 0.800    0 0 0 1
G01085           CIRCULAR 0.800    0 0 0 1
G01086           CIRCULAR 0.800    0 0 0 1
G01087           CIRCULAR 0.800    0 0 0 1
G01088           CIRCULAR 0.800    0 0 0 1
G01089           CIRCULAR 0.800    0 0 0 1
G01090           CIRCULAR 1.000    0 0 0 1
G01091           CIRCULAR 0.800    0 0 0 1
G01092           CIRCULAR 0.800    0 0 0 1
G01093           CIRCULAR 0.800    0 0 0 1
G01094           CIRCULAR 0.800    0 0 0 1
G01095           CIRCULAR 0.800    0 0 0 1
G01096           CIRCULAR 0.800    0 0 0 1
G01097           CIRCULAR 0.800    0 0 0 1
G01098           CIRCULAR 0.800    0 0 0 1
G01099           CIRCULAR 0.800    0 0 0 1
G01100           CIRCULAR 0.800    0 0 0 1
G01101           CIRCULAR 0.800    0 0 0 1
G01102           CIRCULAR 0.800    0 0 0 1
G01103           CIRCULAR 0.800    0 0 0 1
G01104           CIRCULAR 0.800    0 0 0 1
G01105           CIRCULAR 0.800    0 0 0 1
G01106           CIRCULAR 0.800    0 0 0 1
G01107           CIRCULAR 0.800    0 0 0 1
G01108           CIRCULAR 0.800    0 0 0 1
G01109           CIRCULAR 0.800    0 0 0 1
G01110           CIRCULAR 1.000    0 0 0 1
G01111           CIRCULAR 1.000    0 0 0 1
G01112           CIRCULAR 0.800    0 0 0 1
G01113           CIRCULAR 0.800    0 0 0 1
G01114           CIRCULAR 0.800    0 0 0 1
G01115           CIRCULAR 0.800    0 0 0 1
G01116           CIRCULAR 1.000    0 0 0 1
G01117           CIRCULAR 0.800    0 0 0 1
G01118           CIRCULAR 0.800    0 0 0 1
G01119           CIRCULAR 0.800    0 0 0 1
G01120           CIRCULAR 0.800    0 0 0 1
G01121           CIRCULAR 0.800    0 0 0 1
G01122           CIRCULAR 0.800    0 0 0 1
G01123           CIRCULAR 0.800    0 0 0 1
G01124           CIRCULAR 0.800    0 0 0 1
G01125           CIRCULAR 0.800    0 0 0 1
G01126           CIRCULAR 0.800    0 0 0 1
G01127           CIRCULAR 0.800    0 0 0 1
G01128           CIRCULAR 0.800    0 0 0 1
G01129           CIRCULAR 0.800    0 0 0 1
G01130           CIRCULAR 1.000    0 0 0 1
G01131           CIRCULAR 1.000    0 0 0 1
G01132           CIRCULAR 0.800    0 0 0 1
G01133           CIRCULAR 1.000    0 0 0 1
G01134           CIRCULAR 0.800    0 0 0 1
G01135           CIRCULAR 0.800    0 0 0 1
G01136           CIRCULAR 0.800    0 0 0 1
G01137           CIRCULAR 0.800    0 0 0 1
G01138           CIRCULAR 0.800    0 0 0 1
G01139           CIRCULAR 0.800    0 0 0 1
G01140           CIRCULAR 0.800    0 0 0 1
G01141           CIRCULAR 0.800    0 0 0 1
G01142           CIRCULAR 0.800    0 0 0 1
G01143           CIRCULAR 0.800    0 0 0 1
G01144           CIRCULAR 0.800    0 0 0 1
G01145           CIRCULAR 0.800    0 0 0 1
G01146           CIRCULAR 0.800    0 0 0 1
G01147           CIRCULAR 0.800    0 0 0 1
G01148           CIRCULAR 0.800    0 0 0 1
G01149           CIRCULAR 0.800    0 0 0 1
G01150           CIRCULAR 0.800    0 0 0 1
G01151           CIRCULAR 0.800    0 0 0 1
G01152           CIRCULAR 0.800    0 0 0 1
G01153           CIRCULAR 0.800    0 0 0 1
G01154           CIRCULAR 0.800    0 0 0 1
G01155           CIRCULAR 0.800    0 0 0 1
G01156           CIRCULAR 1.000    0 0 0 1
G01157           CIRCULAR 0.800    0 0 0 1
G01158           CIRCULAR 1.000    0 0 0 1
G01159           CIRCULAR 1.000    0 0 0 1
G01160           CIRCULAR 0.800    0 0 0 1
G01161           CIRCULAR 0.800    0 0 0 1
G01162           CIRCULAR 0.800    0 0 0 1
G01163           CIRCULAR 0.800    0 0 0 1
G01164           CIRCULAR 0.800    0 0 0 1
G01165           CIRCULAR 0.800    0 0 0 1
G01166           CIRCULAR 0.800    0 0 0 1
G01167           CIRCULAR 0.800    0 0 0 1
G01168           CIRCULAR 0.800    0 0 0 1
G01169           CIRCULAR 0.800    0 0 0 1
G01170           CIRCULAR 0.800    0 0 0 1
G01171           CIRCULAR 0.800    0 0 0 1
G01172           CIRCULAR 0.800    0 0 0 1
G01173           CIRCULAR 0.800    0 0 0 1
G01174           CIRCULAR 0.800    0 0 0 1
G01175           CIRCULAR 0.800    0 0 0 1
G01176           CIRCULAR 0.800    0 0 0 1
G01177           CIRCULAR 0.800    0 0 0 1
G01178           CIRCULAR 0.800    0 0 0 1
G01179           CIRCULAR 0.800    0 0 0 1
G01180           CIRCULAR 0.800    0 0 0 1
G01181           CIRCULAR 0.800    0 0 0 1
G01182           CIRCULAR 0.800    0 0 0 1
G01183           CIRCULAR 0.800    0 0 0 1
G01184           CIRCULAR 0.800    0 0 0 1
G01185           CIRCULAR 0.800    0 0 0 1
G01186           CIRCULAR 0.800    0 0 0 1
G01187           CIRCULAR 1.200    0 0 0 1
G01188           CIRCULAR 0.800    0 0 0 1
G01189           CIRCULAR 0.800    0 0 0 1
G01190           CIRCULAR 0.800    0 0 0 1
G01191           CIRCULAR 0.800    0 0 0 1
G01192           CIRCULAR 0.800    0 0 0 1
G01193           CIRCULAR 0.800    0 0 0 1
G01194           CIRCULAR 0.800    0 0 0 1
G01195           CIRCULAR 1.000    0 0 0 1
G01196           CIRCULAR 0.800    0 0 0 1
G01197           CIRCULAR 0.800    0 0 0 1
G01198           CIRCULAR 0.800    0 0 0 1
G01199           CIRCULAR 0.800    0 0 0 1
G01200           CIRCULAR 0.800    0 0 0 1
G01201           CIRCULAR 0.800    0 0 0 1
G01202           CIRCULAR 0.800    0 0 0 1
G01203           CIRCULAR 0.800    0 0 0 1
G01204           CIRCULAR 0.800    0 0 0 1
G01205           CIRCULAR 0.800    0 0 0 1
G01206           CIRCULAR 0.800    0 0 0 1
G01207           CIRCULAR 0.800    0 0 0 1
G01208           CIRCULAR 0.800    0 0 0 1
G01209           CIRCULAR 0.800    0 0 0 1
G01210           CIRCULAR 0.800    0 0 0 1
G01211           CIRCULAR 0.800    0 0 0 1
G01212           CIRCULAR 0.800    0 0 0 1
G01213           CIRCULAR 0.800    0 0 0 1
G01214           CIRCULAR 0.800    0 0 0 1
G01215           CIRCULAR 0.800    0 0 0 1
G01216           CIRCULAR 0.800    0 0 0 1
G01217           CIRCULAR 0.800    0 0 0 1
G01218           CIRCULAR 0.800    0 0 0 1
G01219           CIRCULAR 0.800    0 0 0 1
G01220           CIRCULAR 0.800    0 0 0 1
G01221           CIRCULAR 1.000    0 0 0 1
G01222           CIRCULAR 0.800    0 0 0 1
G01223           CIRCULAR 0.800    0 0 0 1
G01224           CIRCULAR 0.800    0 0 0 1
G01225           CIRCULAR 1.000    0 0 0 1
G01226           CIRCULAR 0.800    0 0 0 1
G01227           CIRCULAR 1.000    0 0 0 1
G01228           CIRCULAR 0.800    0 0 0 1
G01229           CIRCULAR 0.800    0 0 0 1
G01230           CIRCULAR 0.800    0 0 0 1
G01231           CIRCULAR 0.800    0 0 0 1
G01232           CIRCULAR 0.800    0 0 0 1
G01233           CIRCULAR 0.800    0 0 0 1
G01234           CIRCULAR 0.800    0 0 0 1
G01235           CIRCULAR 0.800    0 0 0 1
G01236           CIRCULAR 0.800    0 0 0 1
G01237           CIRCULAR 0.800    0 0 0 1
G01238           CIRCULAR 0.800    0 0 0 1
G01239           CIRCULAR 0.800    0 0 0 1
G01240           CIRCULAR 0.800    0 0 0 1
G01241           CIRCULAR 0.800    0 0 0 1
G01242           CIRCULAR 0.800    0 0 0 1
G01243           CIRCULAR 0.800    0 0 0 1
G01244           CIRCULAR 0.800    0 0 0 1
G01245           CIRCULAR 0.800    0 0 0 1
G01246           CIRCULAR 0.800    0 0 0 1
G01247           CIRCULAR 0.800    0 0 0 1
G01248           CIRCULAR 0.800    0 0 0 1
G01249           CIRCULAR 0.800    0 0 0 1
G01250           CIRCULAR 0.800    0 0 0 1
G01251           CIRCULAR 0.800    0 0 0 1
G01252           CIRCULAR 0.800    0 0 0 1
G01253           CIRCULAR 0.800    0 0 0 1
G01254           CIRCULAR 0.800    0 0 0 1
G01255           CIRCULAR 0.800    0 0 0 1
G01256           CIRCULAR 0.800    0 0 0 1
G01257           CIRCULAR 1.000    0 0 0 1
G01258           CIRCULAR 0.800    0 0 0 1
G01259           CIRCULAR 0.800    0 0 0 1
G01260           CIRCULAR 0.800    0 0 0 1
G01261           CIRCULAR 0.800    0 0 0 1
G01262           CIRCULAR 0.800    0 0 0 1
G01263           CIRCULAR 0.800    0 0 0 1
G01264           CIRCULAR 0.800    0 0 0 1
G01265           CIRCULAR 0.800    0 0 0 1
G01266           CIRCULAR 0.800    0 0 0 1
G01267           CIRCULAR 0.800    0 0 0 1
G01268           CIRCULAR 0.800    0 0 0 1
G01269           CIRCULAR 0.800    0 0 0 1
G01270           CIRCULAR 0.800    0 0 0 1
G01271           CIRCULAR 0.800    0 0 0 1
G01272           CIRCULAR 0.800    0 0 0 1
G01273           CIRCULAR 0.800    0 0 0 1
G01274           CIRCULAR 0.800    0 0 0 1
G01275           CIRCULAR 0.800    0 0 0 1
G01276           CIRCULAR 0.800    0 0 0 1
G01277           CIRCULAR 0.800    0 0 0 1
G01278           CIRCULAR 0.800    0 0 0 1
G01279           CIRCULAR 0.800    0 0 0 1
G01280           CIRCULAR 0.800    0 0 0 1
G01281           CIRCULAR 0.800    0 0 0 1
G01282           CIRCULAR 0.800    0 0 0 1
G01283           CIRCULAR 0.800    0 0 0 1
G01284           CIRCULAR 0.800    0 0 0 1
G01285           CIRCULAR 0.800    0 0 0 1
G01286           CIRCULAR 0.800    0 0 0 1
G01287           CIRCULAR 0.800    0 0 0 1
G01288           CIRCULAR 0.800    0 0 0 1
G01289           CIRCULAR 0.800    0 0 0 1
G01290           CIRCULAR 0.800    0 0 0 1
G01291           CIRCULAR 0.800    0 0 0 1
G01292           CIRCULAR 1.000    0 0 0 1
G01293           CIRCULAR 0.800    0 0 0 1
G01294           CIRCULAR 0.800    0 0 0 1
G01295           CIRCULAR 0.800    0 0 0 1
G01296           CIRCULAR 0.800    0 0 0 1
G01297           CIRCULAR 0.800    0 0 0 1
G01298           CIRCULAR 0.800    0 0 0 1
G01299           CIRCULAR 0.800    0 0 0 1
G01300           CIRCULAR 0.800    0 0 0 1
G01301           CIRCULAR 0.800    0 0 0 1
G01302           CIRCULAR 0.800    0 0 0 1
G01303           CIRCULAR 0.800    0 0 0 1
G01304           CIRCULAR 0.800    0 0 0 1
G01305           CIRCULAR 0.800    0 0 0 1
G01306           CIRCULAR 0.800    0 0 0 1
G01307           CIRCULAR 0.800    0 0 0 1
G01308           CIRCULAR 0.800    0 0 0 1
G01309           CIRCULAR 1.000    0 0 0 1
G01310           CIRCULAR 0.800    0 0 0 1
G01311           CIRCULAR 0.800    0 0 0 1
G01312           CIRCULAR 0.800    0 0 0 1
G01313           CIRCULAR 0.800    0 0 0 1
G01314           CIRCULAR 0.800    0 0 0 1
G01315           CIRCULAR 0.800    0 0 0 1
G01316           CIRCULAR 0.800    0 0 0 1
G01317           CIRCULAR 0.800    0 0 0 1
G01318           CIRCULAR 0.800    0 0 0 1
G01319           CIRCULAR 0.800    0 0 0 1
G01320           CIRCULAR 0.800    0 0 0 1
G01321           CIRCULAR 0.800    0 0 0 1
G01322           CIRCULAR 0.800    0 0 0 1
G01323           CIRCULAR 0.800    0 0 0 1
G01324           CIRCULAR 0.800    0 0 0 1
G01325           CIRCULAR 0.800    0 0 0 1
G01326           CIRCULAR 0.800    0 0 0 1
G01327           CIRCULAR 1.000    0 0 0 1
G01328           CIRCULAR 0.800    0 0 0 1
G01329           CIRCULAR 1.000    0 0 0 1
G01330           CIRCULAR 0.800    0 0 0 1
G01331           CIRCULAR 0.800    0 0 0 1
G01332           CIRCULAR 0.800    0 0 0 1
G01333           CIRCULAR 0.800    0 0 0 1
G01334           CIRCULAR 0.800    0 0 0 1
G01335           CIRCULAR 0.800    0 0 0 1
G01336           CIRCULAR 0.800    0 0 0 1
G01337           CIRCULAR 0.800    0 0 0 1
G01338           CIRCULAR 0.800    0 0 0 1
G01339           CIRCULAR 0.800    0 0 0 1
G01340           CIRCULAR 0.800    0 0 0 1
G01341           CIRCULAR 0.800    0 0 0 1
G01342           CIRCULAR 0.800    0 0 0 1
G01343           CIRCULAR 0.800    0 0 0 1
G01344           CIRCULAR 0.800    0 0 0 1
G01345           CIRCULAR 0.800    0 0 0 1
G01346           CIRCULAR 0.800    0 0 0 1
G01347           CIRCULAR 0.800    0 0 0 1
G01348           CIRCULAR 1.000    0 0 0 1
G01349           CIRCULAR 0.800    0 0 0 1
G01350           CIRCULAR 0.800    0 0 0 1
G01351           CIRCULAR 0.800    0 0 0 1
G01352           CIRCULAR 0.800    0 0 0 1
G01353           CIRCULAR 0.800    0 0 0 1
G01354           CIRCULAR 0.800    0 0 0 1
G01355           CIRCULAR 0.800    0 0 0 1
G01356           CIRCULAR 0.800    0 0 0 1
G01357           CIRCULAR 0.800    0 0 0 1
G01358           CIRCULAR 1.000    0 0 0 1
G01359           CIRCULAR 0.800    0 0 0 1
G01360           CIRCULAR 0.800    0 0 0 1
G01361           CIRCULAR 0.800    0 0 0 1
G01362           CIRCULAR 0.800    0 0 0 1
G01363           CIRCULAR 0.800    0 0 0 1
G01364           CIRCULAR 0.800    0 0 0 1
G01365           CIRCULAR 0.800    0 0 0 1
G01366           CIRCULAR 0.800    0 0 0 1
G01367           CIRCULAR 0.800    0 0 0 1
G01368           CIRCULAR 0.800    0 0 0 1
G01369           CIRCULAR 0.800    0 0 0 1
G01370           CIRCULAR 0.800    0 0 0 1
G01371           CIRCULAR 0.800    0 0 0 1
G01372           CIRCULAR 0.800    0 0 0 1
G01373           CIRCULAR 0.800    0 0 0 1
G01374           CIRCULAR 0.800    0 0 0 1
G01375           CIRCULAR 0.800    0 0 0 1
G01376           CIRCULAR 0.800    0 0 0 1
G01377           CIRCULAR 0.800    0 0 0 1
G01378           CIRCULAR 0.800    0 0 0 1
G01379           CIRCULAR 0.800    0 0 0 1
G01380           CIRCULAR 0.800    0 0 0 1
G01381           CIRCULAR 0.800    0 0 0 1
G01382           CIRCULAR 0.800    0 0 0 1
G01383           CIRCULAR 0.800    0 0 0 1
G01384           CIRCULAR 0.800    0 0 0 1
G01385           CIRCULAR 0.800    0 0 0 1
G01386           CIRCULAR 0.800    0 0 0 1
G01387           CIRCULAR 1.000    0 0 0 1
G01388           CIRCULAR 0.800    0 0 0 1
G01389           CIRCULAR 1.000    0 0 0 1
G01390           CIRCULAR 0.800    0 0 0 1
G01391           CIRCULAR 0.800    0 0 0 1
G01392           CIRCULAR 0.800    0 0 0 1
G01393           CIRCULAR 0.800    0 0 0 1
G01394           CIRCULAR 1.000    0 0 0 1
G01395           CIRCULAR 0.800    0 0 0 1
G01396           CIRCULAR 0.800    0 0 0 1
G01397           CIRCULAR 0.800    0 0 0 1
G01398           CIRCULAR 0.800    0 0 0 1
G01399           CIRCULAR 0.800    0 0 0 1
G01400           CIRCULAR 0.800    0 0 0 1
G01401           CIRCULAR 0.800    0 0 0 1
G01402           CIRCULAR 0.800    0 0 0 1
G01403           CIRCULAR 0.800    0 0 0 1
G01404           CIRCULAR 0.800    0 0 0 1
G01405           CIRCULAR 0.800    0 0 0 1
G01406           CIRCULAR 0.800    0 0 0 1
G01407           CIRCULAR 0.800    0 0 0 1
G01408           CIRCULAR 0.800    0 0 0 1
G01409           CIRCULAR 1.000    0 0 0 1
G01410           CIRCULAR 0.800    0 0 0 1
G01411           CIRCULAR 0.800    0 0 0 1
G01412           CIRCULAR 0.800    0 0 0 1
G01413           CIRCULAR 1.000    0 0 0 1
G01414           CIRCULAR 0.800    0 0 0 1
G01415           CIRCULAR 0.800    0 0 0 1
G01416           CIRCULAR 0.800    0 0 0 1
G01417           CIRCULAR 0.800    0 0 0 1
G01418           CIRCULAR 0.800    0 0 0 1
G01419           CIRCULAR 0.800    0 0 0 1
G01420           CIRCULAR 0.800    0 0 0 1
G01421           CIRCULAR 0.800    0 0 0 1
G01422           CIRCULAR 0.800    0 0 0 1
G01423           CIRCULAR 1.000    0 0 0 1
G01424           CIRCULAR 0.800    0 0 0 1
G01425           CIRCULAR 1.000    0 0 0 1
G01426           CIRCULAR 1.000    0 0 0 1
G01427           CIRCULAR 0.800    0 0 0 1
G01428           CIRCULAR 0.800    0 0 0 1
G01429           CIRCULAR 0.800    0 0 0 1
G01430           CIRCULAR 0.800    0 0 0 1
G01431           CIRCULAR 0.800    0 0 0 1
G01432           CIRCULAR 0.800    0 0 0 1
G01433           CIRCULAR 1.200    0 0 0 1
G01434           CIRCULAR 1.200    0 0 0 1
G01435           CIRCULAR 1.000    0 0 0 1
G01436           CIRCULAR 0.800    0 0 0 1
G01437           CIRCULAR 0.800    0 0 0 1
G01438           CIRCULAR 0.800    0 0 0 1
G01439           CIRCULAR 0.800    0 0 0 1
G01440           CIRCULAR 0.800    0 0 0 1
G01441           CIRCULAR 0.800    0 0 0 1
G01442           CIRCULAR 0.800    0 0 0 1
G01443           CIRCULAR 0.800    0 0 0 1
G01444           CIRCULAR 0.800    0 0 0 1
G01445           CIRCULAR 0.800    0 0 0 1
G01446           CIRCULAR 0.800    0 0 0 1
G01447           CIRCULAR 0.800    0 0 0 1
G01448           CIRCULAR 0.800    0 0 0 1
G01449           CIRCULAR 0.800    0 0 0 1
G01450           CIRCULAR 0.800    0 0 0 1
G01451           CIRCULAR 0.800    0 0 0 1
G01452           CIRCULAR 0.800    0 0 0 1
G01453           CIRCULAR 1.000    0 0 0 1
G01454           CIRCULAR 0.800    0 0 0 1
G01455           CIRCULAR 0.800    0 0 0 1
G01456           CIRCULAR 0.800    0 0 0 1
G01457           CIRCULAR 0.800    0 0 0 1
G01458           CIRCULAR 0.800    0 0 0 1
G01459           CIRCULAR 0.800    0 0 0 1
G01460           CIRCULAR 1.000    0 0 0 1
G01461           CIRCULAR 0.800    0 0 0 1
G01462           CIRCULAR 0.800    0 0 0 1
G01463           CIRCULAR 0.800    0 0 0 1
G01464           CIRCULAR 1.000    0 0 0 1
G01465           CIRCULAR 0.800    0 0 0 1
G01466           CIRCULAR 0.800    0 0 0 1
G01467           CIRCULAR 0.800    0 0 0 1
G01468           CIRCULAR 0.800    0 0 0 1
G01469           CIRCULAR 0.800    0 0 0 1
G01470           CIRCULAR 0.800    0 0 0 1
G01471           CIRCULAR 1.000    0 0 0 1
G01472           CIRCULAR 1.000    0 0 0 1
G01473           CIRCULAR 1.200    0 0 0 1
G01474           CIRCULAR 0.800    0 0 0 1
G01475           CIRCULAR 0.800    0 0 0 1
G01476           CIRCULAR 0.800    0 0 0 1
G01477           CIRCULAR 0.800    0 0 0 1
G01478           CIRCULAR 0.800    0 0 0 1
G01479           CIRCULAR 0.800    0 0 0 1
G01480           CIRCULAR 0.800    0 0 0 1
G01481           CIRCULAR 1.000    0 0 0 1
G01482           CIRCULAR 0.800    0 0 0 1
G01483           CIRCULAR 0.800    0 0 0 1
G01484           CIRCULAR 1.000    0 0 0 1
G01485           CIRCULAR 0.800    0 0 0 1
G01486           CIRCULAR 1.000    0 0 0 1
G01487           CIRCULAR 0.800    0 0 0 1
G01488           CIRCULAR 0.800    0 0 0 1
G01489           CIRCULAR 1.000    0 0 0 1
G01490           CIRCULAR 1.000    0 0 0 1
G01491           CIRCULAR 0.800    0 0 0 1
G01492           CIRCULAR 0.800    0 0 0 1
G01493           CIRCULAR 0.800    0 0 0 1
G01494           CIRCULAR 0.800    0 0 0 1
G01495           CIRCULAR 0.800    0 0 0 1
G01496           CIRCULAR 0.800    0 0 0 1
G01497           CIRCULAR 0.800    0 0 0 1
G01498           CIRCULAR 1.000    0 0 0 1
G01499           CIRCULAR 1.000    0 0 0 1
G01500           CIRCULAR 0.800    0 0 0 1
G01501           CIRCULAR 1.000    0 0 0 1
G01502           CIRCULAR 1.000    0 0 0 1
G01503           CIRCULAR 0.800    0 0 0 1
G01504           CIRCULAR 0.800    0 0 0 1
G01505           CIRCULAR 0.800    0 0 0 1
G01506           CIRCULAR 0.800    0 0 0 1
G01507           CIRCULAR 0.800    0 0 0 1
G01508           CIRCULAR 1.000    0 0 0 1
G01509           CIRCULAR 1.000    0 0 0 1
G01510           CIRCULAR 0.800    0 0 0 1
G01511           CIRCULAR 0.800    0 0 0 1
G01512           CIRCULAR 0.800    0 0 0 1
G01513           CIRCULAR 0.800    0 0 0 1
G01514           CIRCULAR 0.800    0 0 0 1
G01515           CIRCULAR 0.800    0 0 0 1
G01516           CIRCULAR 0.800    0 0 0 1
G01517           CIRCULAR 0.800    0 0 0 1
G01518           CIRCULAR 0.800    0 0 0 1
G01519           CIRCULAR 0.800    0 0 0 1
G01520           CIRCULAR 0.800    0 0 0 1
G01521           CIRCULAR 0.800    0 0 0 1
G01522           CIRCULAR 0.800    0 0 0 1
G01523           CIRCULAR 0.800    0 0 0 1
G01524           CIRCULAR 0.800    0 0 0 1
G01525           CIRCULAR 0.800    0 0 0 1
G01526           CIRCULAR 0.800    0 0 0 1
G01527           CIRCULAR 0.800    0 0 0 1
G01528           CIRCULAR 0.800    0 0 0 1
G01529           CIRCULAR 0.800    0 0 0 1
G01530           CIRCULAR 1.000    0 0 0 1
G01531           CIRCULAR 1.000    0 0 0 1
G01532           CIRCULAR 1.000    0 0 0 1
G01533           CIRCULAR 0.800    0 0 0 1
G01534           CIRCULAR 0.800    0 0 0 1
G01535           CIRCULAR 0.800    0 0 0 1
G01536           CIRCULAR 0.800    0 0 0 1
G01537           CIRCULAR 0.800    0 0 0 1
G01538           CIRCULAR 0.800    0 0 0 1
G01539           CIRCULAR 0.800    0 0 0 1
G01540           CIRCULAR 0.800    0 0 0 1
G01541           CIRCULAR 1.000    0 0 0 1
G01542           CIRCULAR 1.000    0 0 0 1
G01543           CIRCULAR 0.800    0 0 0 1
G01544           CIRCULAR 0.800    0 0 0 1
G01545           CIRCULAR 0.800    0 0 0 1
G01546           CIRCULAR 0.800    0 0 0 1
G01547           CIRCULAR 0.800    0 0 0 1
G01548           CIRCULAR 0.800    0 0 0 1
G01549           CIRCULAR 0.800    0 0 0 1
G01550           CIRCULAR 0.800    0 0 0 1
G01551           CIRCULAR 0.800    0 0 0 1
G01552           CIRCULAR 0.800    0 0 0 1
G01553           CIRCULAR 0.800    0 0 0 1
G01554           CIRCULAR 1.000    0 0 0 1
G01555           CIRCULAR 0.800    0 0 0 1
G01556           CIRCULAR 0.800    0 0 0 1
G01557           CIRCULAR 0.800    0 0 0 1
G01558           CIRCULAR 0.800    0 0 0 1
G01559           CIRCULAR 1.000    0 0 0 1
G01560           CIRCULAR 0.800    0 0 0 1
G01561           CIRCULAR 0.800    0 0 0 1
G01562           CIRCULAR 0.800    0 0 0 1
G01563           CIRCULAR 0.800    0 0 0 1
G01564           CIRCULAR 0.800    0 0 0 1
G01565           CIRCULAR 0.800    0 0 0 1
G01566           CIRCULAR 0.800    0 0 0 1
G01567           CIRCULAR 0.800    0 0 0 1
G01568           CIRCULAR 0.800    0 0 0 1
G01569           CIRCULAR 0.800    0 0 0 1
G01570           CIRCULAR 0.800    0 0 0 1
G01571           CIRCULAR 0.800    0 0 0 1
G01572           CIRCULAR 0.800    0 0 0 1
G01573           CIRCULAR 0.800    0 0 0 1
G01574           CIRCULAR 0.800    0 0 0 1
G01575           CIRCULAR 0.800    0 0 0 1
G01576           CIRCULAR 0.800    0 0 0 1
G01577           CIRCULAR 0.800    0 0 0 1
G01578           CIRCULAR 0.800    0 0 0 1
G01579           CIRCULAR 0.800    0 0 0 1
G01580           CIRCULAR 0.800    0 0 0 1
G01581           CIRCULAR 0.800    0 0 0 1
G01582           CIRCULAR 0.800    0 0 0 1
G01583           CIRCULAR 0.800    0 0 0 1
G01584           CIRCULAR 0.800    0 0 0 1
G01585           CIRCULAR 0.800    0 0 0 1
G01586           CIRCULAR 0.800    0 0 0 1
G01587           CIRCULAR 0.800    0 0 0 1
G01588           CIRCULAR 0.800    0 0 0 1
G01589           CIRCULAR 0.800    0 0 0 1
G01590           CIRCULAR 0.800    0 0 0 1
G01591           CIRCULAR 1.000    0 0 0 1
G01592           CIRCULAR 0.800    0 0 0 1
G01593           CIRCULAR 0.800    0 0 0 1
G01594           CIRCULAR 1.000    0 0 0 1
G01595           CIRCULAR 1.000    0 0 0 1
G01596           CIRCULAR 0.800    0 0 0 1
G01597           CIRCULAR 0.800    0 0 0 1
G01598           CIRCULAR 0.800    0 0 0 1
G01599           CIRCULAR 0.800    0 0 0 1
G01600           CIRCULAR 0.800    0 0 0 1
G01601           CIRCULAR 0.800    0 0 0 1
G01602           CIRCULAR 0.800    0 0 0 1
G01603           CIRCULAR 0.800    0 0 0 1
G01604           CIRCULAR 0.800    0 0 0 1
G01605           CIRCULAR 0.800    0 0 0 1
G01606           CIRCULAR 0.800    0 0 0 1
G01607           CIRCULAR 0.800    0 0 0 1
G01608           CIRCULAR 0.800    0 0 0 1
G01609           CIRCULAR 0.800    0 0 0 1
G01610           CIRCULAR 0.800    0 0 0 1
G01611           CIRCULAR 0.800    0 0 0 1
G01612           CIRCULAR 0.800    0 0 0 1
G01613           CIRCULAR 0.800    0 0 0 1
G01614           CIRCULAR 0.800    0 0 0 1
G01615           CIRCULAR 0.800    0 0 0 1
G01616           CIRCULAR 0.800    0 0 0 1
G01617           CIRCULAR 0.800    0 0 0 1
G01618           CIRCULAR 0.800    0 0 0 1
G01619           CIRCULAR 0.800    0 0 0 1
G01620           CIRCULAR 0.800    0 0 0 1
G01621           CIRCULAR 0.800    0 0 0 1
G01622           CIRCULAR 0.800    0 0 0 1
G01623           CIRCULAR 0.800    0 0 0 1
G01624           CIRCULAR 0.800    0 0 0 1
G01625           CIRCULAR 0.800    0 0 0 1
G01626           CIRCULAR 0.800    0 0 0 1
G01627           CIRCULAR 0.800    0 0 0 1
G01628           CIRCULAR 0.800    0 0 0 1
G01629           CIRCULAR 0.800    0 0 0 1
G01630           CIRCULAR 0.800    0 0 0 1
G01631           CIRCULAR 1.000    0 0 0 1
G01632           CIRCULAR 1.000    0 0 0 1
G01633           CIRCULAR 0.800    0 0 0 1
G01634           CIRCULAR 0.800    0 0 0 1
G01635           CIRCULAR 0.800    0 0 0 1
G01636           CIRCULAR 0.800    0 0 0 1
G01637           CIRCULAR 0.800    0 0 0 1
G01638           CIRCULAR 0.800    0 0 0 1
G01639           CIRCULAR 0.800    0 0 0 1
G01640           CIRCULAR 0.800    0 0 0 1
G01641           CIRCULAR 0.800    0 0 0 1
G01642           CIRCULAR 0.800    0 0 0 1
G01643           CIRCULAR 0.800    0 0 0 1
G01644           CIRCULAR 0.800    0 0 0 1
G01645           CIRCULAR 1.000    0 0 0 1
G01646           CIRCULAR 0.800    0 0 0 1
G01647           CIRCULAR 1.000    0 0 0 1
G01648           CIRCULAR 1.000    0 0 0 1
G01649           CIRCULAR 0.800    0 0 0 1
G01650           CIRCULAR 1.000    0 0 0 1
G01651           CIRCULAR 0.800    0 0 0 1
G01652           CIRCULAR 0.800    0 0 0 1
G01653           CIRCULAR 0.800    0 0 0 1
G01654           CIRCULAR 0.800    0 0 0 1
G01655           CIRCULAR 0.800    0 0 0 1
G01656           CIRCULAR 0.800    0 0 0 1
G01657           CIRCULAR 0.800    0 0 0 1
G01658           CIRCULAR 0.800    0 0 0 1
G01659           CIRCULAR 0.800    0 0 0 1
G01660           CIRCULAR 0.800    0 0 0 1
G01661           CIRCULAR 0.800    0 0 0 1
G01662           CIRCULAR 0.800    0 0 0 1
G01663           CIRCULAR 0.800    0 0 0 1
G01664           CIRCULAR 1.000    0 0 0 1
G01665           CIRCULAR 0.800    0 0 0 1
G01666           CIRCULAR 0.800    0 0 0 1
G01667           CIRCULAR 0.800    0 0 0 1
G01668           CIRCULAR 0.800    0 0 0 1
G01669           CIRCULAR 0.800    0 0 0 1
G01670           CIRCULAR 0.800    0 0 0 1
G01671           CIRCULAR 0.800    0 0 0 1
G01672           CIRCULAR 1.000    0 0 0 1
G01673           CIRCULAR 0.800    0 0 0 1
G01674           CIRCULAR 0.800    0 0 0 1
G01675           CIRCULAR 0.800    0 0 0 1
G01676           CIRCULAR 0.800    0 0 0 1
G01677           CIRCULAR 0.800    0 0 0 1
G01678           CIRCULAR 0.800    0 0 0 1
G01679           CIRCULAR 1.000    0 0 0 1
G01680           CIRCULAR 1.000    0 0 0 1
G01681           CIRCULAR 0.800    0 0 0 1
G01682           CIRCULAR 0.800    0 0 0 1
G01683           CIRCULAR 0.800    0 0 0 1
G01684           CIRCULAR 0.800    0 0 0 1
G01685           CIRCULAR 0.800    0 0 0 1
G01686           CIRCULAR 0.800    0 0 0 1
G01687           CIRCULAR 0.800    0 0 0 1
G01688           CIRCULAR 0.800    0 0 0 1
G01689           CIRCULAR 0.800    0 0 0 1
G01690           CIRCULAR 0.800    0 0 0 1
G01691           CIRCULAR 0.800    0 0 0 1
G01692           CIRCULAR 0.800    0 0 0 1
G01693           CIRCULAR 0.800    0 0 0 1
G01694           CIRCULAR 0.800    0 0 0 1
G01695           CIRCULAR 0.800    0 0 0 1
G01696           CIRCULAR 0.800    0 0 0 1
G01697           CIRCULAR 0.800    0 0 0 1
G01698           CIRCULAR 0.800    0 0 0 1
G01699           CIRCULAR 0.800    0 0 0 1
G01700           CIRCULAR 0.800    0 0 0 1
G01701           CIRCULAR 0.800    0 0 0 1
G01702           CIRCULAR 0.800    0 0 0 1
G01703           CIRCULAR 0.800    0 0 0 1
G01704           CIRCULAR 0.800    0 0 0 1
G01705           CIRCULAR 0.800    0 0 0 1
G01706           CIRCULAR 0.800    0 0 0 1
G01707           CIRCULAR 1.000    0 0 0 1
G01708           CIRCULAR 0.800    0 0 0 1
G01709           CIRCULAR 0.800    0 0 0 1
G01710           CIRCULAR 0.800    0 0 0 1
G01711           CIRCULAR 0.800    0 0 0 1
G01712           CIRCULAR 1.000    0 0 0 1
G01713           CIRCULAR 1.000    0 0 0 1
G01714           CIRCULAR 0.800    0 0 0 1
G01715           CIRCULAR 0.800    0 0 0 1
G01716           CIRCULAR 0.800    0 0 0 1
G01717           CIRCULAR 0.800    0 0 0 1
G01718           CIRCULAR 0.800    0 0 0 1
G01719           CIRCULAR 0.800    0 0 0 1
G01720           CIRCULAR 0.800    0 0 0 1
G01721           CIRCULAR 0.800    0 0 0 1
G01722           CIRCULAR 0.800    0 0 0 1
G01723           CIRCULAR 0.800    0 0 0 1
G01724           CIRCULAR 0.800    0 0 0 1
G01725           CIRCULAR 0.800    0 0 0 1
G01726           CIRCULAR 0.800    0 0 0 1
G01727           CIRCULAR 1.000    0 0 0 1
G01728           CIRCULAR 0.800    0 0 0 1
G01729           CIRCULAR 0.800    0 0 0 1
G01730           CIRCULAR 0.800    0 0 0 1
G01731           CIRCULAR 1.000    0 0 0 1
G01732           CIRCULAR 0.800    0 0 0 1
G01733           CIRCULAR 0.800    0 0 0 1
G01734           CIRCULAR 0.800    0 0 0 1
G01735           CIRCULAR 0.800    0 0 0 1
G01736           CIRCULAR 0.800    0 0 0 1
G01737           CIRCULAR 0.800    0 0 0 1
G01738           CIRCULAR 0.800    0 0 0 1
G01739           CIRCULAR 0.800    0 0 0 1
G01740           CIRCULAR 0.800    0 0 0 1
G01741           CIRCULAR 0.800    0 0 0 1
G01742           CIRCULAR 0.800    0 0 0 1
G01743           CIRCULAR 0.800    0 0 0 1
G01744           CIRCULAR 0.800    0 0 0 1
G01745           CIRCULAR 0.800    0 0 0 1
G01746           CIRCULAR 0.800    0 0 0 1
G01747           CIRCULAR 0.800    0 0 0 1
G01748           CIRCULAR 0.800    0 0 0 1
G01749           CIRCULAR 1.000    0 0 0 1
G01750           CIRCULAR 0.800    0 0 0 1
G01751           CIRCULAR 1.000    0 0 0 1
G01752           CIRCULAR 0.800    0 0 0 1
G01753           CIRCULAR 0.800    0 0 0 1
G01754           CIRCULAR 0.800    0 0 0 1
G01755           CIRCULAR 0.800    0 0 0 1
G01756           CIRCULAR 0.800    0 0 0 1
G01757           CIRCULAR 0.800    0 0 0 1
G01758           CIRCULAR 0.800    0 0 0 1
G01759           CIRCULAR 0.800    0 0 0 1
G01760           CIRCULAR 0.800    0 0 0 1
G01761           CIRCULAR 1.000    0 0 0 1
G01762           CIRCULAR 0.800    0 0 0 1
G01763           CIRCULAR 0.800    0 0 0 1
G01764           CIRCULAR 0.800    0 0 0 1
G01765           CIRCULAR 0.800    0 0 0 1
G01766           CIRCULAR 0.800    0 0 0 1
G01767           CIRCULAR 0.800    0 0 0 1
G01768           CIRCULAR 0.800    0 0 0 1
G01769           CIRCULAR 0.800    0 0 0 1
G01770           CIRCULAR 0.800    0 0 0 1
G01771           CIRCULAR 0.800    0 0 0 1
G01772           CIRCULAR 0.800    0 0 0 1
G01773           CIRCULAR 0.800    0 0 0 1
G01774           CIRCULAR 0.800    0 0 0 1
G01775           CIRCULAR 0.800    0 0 0 1
G01776           CIRCULAR 0.800    0 0 0 1
G01777           CIRCULAR 0.800    0 0 0 1
G01778           CIRCULAR 0.800    0 0 0 1
G01779           CIRCULAR 0.800    0 0 0 1
G01780           CIRCULAR 0.800    0 0 0 1
G01781           CIRCULAR 1.000    0 0 0 1
G01782           CIRCULAR 0.800    0 0 0 1
G01783           CIRCULAR 0.800    0 0 0 1
G01784           CIRCULAR 0.800    0 0 0 1
G01785           CIRCULAR 0.800    0 0 0 1
G01786           CIRCULAR 0.800    0 0 0 1
G01787           CIRCULAR 0.800    0 0 0 1
G01788           CIRCULAR 0.800    0 0 0 1
G01789           CIRCULAR 0.800    0 0 0 1
G01790           CIRCULAR 0.800    0 0 0 1
G01791           CIRCULAR 0.800    0 0 0 1
G01792           CIRCULAR 0.800    0 0 0 1
G01793           CIRCULAR 0.800    0 0 0 1
G01794           CIRCULAR 1.000    0 0 0 1
G01795           CIRCULAR 0.800    0 0 0 1
G01796           CIRCULAR 0.800    0 0 0 1
G01797           CIRCULAR 0.800    0 0 0 1
G01798           CIRCULAR 0.800    0 0 0 1
G01799           CIRCULAR 0.800    0 0 0 1
G01800           CIRCULAR 1.000    0 0 0 1
G01801           CIRCULAR 0.800    0 0 0 1
G01802           CIRCULAR 0.800    0 0 0 1
G01803           CIRCULAR 0.800    0 0 0 1
G01804           CIRCULAR 0.800    0 0 0 1
G01805           CIRCULAR 0.800    0 0 0 1
G01806           CIRCULAR 0.800    0 0 0 1
G01807           CIRCULAR 0.800    0 0 0 1
G01808           CIRCULAR 0.800    0 0 0 1
G01809           CIRCULAR 0.800    0 0 0 1
G01810           CIRCULAR 0.800    0 0 0 1
G01811           CIRCULAR 0.800    0 0 0 1
G01812           CIRCULAR 0.800    0 0 0 1
G01813           CIRCULAR 1.000    0 0 0 1
G01814           CIRCULAR 1.000    0 0 0 1
G01815           CIRCULAR 1.000    0 0 0 1
G01816           CIRCULAR 0.800    0 0 0 1
G01817           CIRCULAR 0.800    0 0 0 1
G01818           CIRCULAR 0.800    0 0 0 1
G01819           CIRCULAR 0.800    0 0 0 1
G01820           CIRCULAR 0.800    0 0 0 1
G01821           CIRCULAR 0.800    0 0 0 1
G01822           CIRCULAR 0.800    0 0 0 1
G01823           CIRCULAR 0.800    0 0 0 1
G01824           CIRCULAR 0.800    0 0 0 1
G01825           CIRCULAR 0.800    0 0 0 1
G01826           CIRCULAR 0.800    0 0 0 1
G01827           CIRCULAR 0.800    0 0 0 1
G01828           CIRCULAR 0.800    0 0 0 1
G01829           CIRCULAR 0.800    0 0 0 1
G01830           CIRCULAR 0.800    0 0 0 1
G01831           CIRCULAR 0.800    0 0 0 1
G01832           CIRCULAR 0.800    0 0 0 1
G01833           CIRCULAR 0.800    0 0 0 1
G01834           CIRCULAR 0.800    0 0 0 1
G01835           CIRCULAR 0.800    0 0 0 1
G01836           CIRCULAR 0.800    0 0 0 1
G01837           CIRCULAR 0.800    0 0 0 1
G01838           CIRCULAR 0.800    0 0 0 1
G01839           CIRCULAR 0.800    0 0 0 1
G01840           CIRCULAR 0.800    0 0 0 1
G01841           CIRCULAR 0.800    0 0 0 1
G01842           CIRCULAR 0.800    0 0 0 1
G01843           CIRCULAR 0.800    0 0 0 1
G01844           CIRCULAR 0.800    0 0 0 1
G01845           CIRCULAR 0.800    0 0 0 1
G01846           CIRCULAR 0.800    0 0 0 1
G01847           CIRCULAR 0.800    0 0 0 1
G01848           CIRCULAR 0.800    0 0 0 1
G01849           CIRCULAR 0.800    0 0 0 1
G01850           CIRCULAR 1.000    0 0 0 1
G01851           CIRCULAR 0.800    0 0 0 1
G01852           CIRCULAR 0.800    0 0 0 1
G01853           CIRCULAR 0.800    0 0 0 1
G01854           CIRCULAR 0.800    0 0 0 1
G01855           CIRCULAR 0.800    0 0 0 1
G01856           CIRCULAR 0.800    0 0 0 1
G01857           CIRCULAR 0.800    0 0 0 1
G01858           CIRCULAR 0.800    0 0 0 1
G01859           CIRCULAR 0.800    0 0 0 1
G01860           CIRCULAR 0.800    0 0 0 1
G01861           CIRCULAR 0.800    0 0 0 1
G01862           CIRCULAR 0.800    0 0 0 1
G01863           CIRCULAR 0.800    0 0 0 1
G01864           CIRCULAR 0.800    0 0 0 1
G01865           CIRCULAR 0.800    0 0 0 1
G01866           CIRCULAR 0.800    0 0 0 1
G01867           CIRCULAR 0.800    0 0 0 1
G01868           CIRCULAR 0.800    0 0 0 1
G01869           CIRCULAR 0.800    0 0 0 1
G01870           CIRCULAR 0.800    0 0 0 1
G01871           CIRCULAR 0.800    0 0 0 1
G01872           CIRCULAR 0.800    0 0 0 1
G01873           CIRCULAR 0.800    0 0 0 1
G01874           CIRCULAR 0.800    0 0 0 1
G01875           CIRCULAR 0.800    0 0 0 1
G01876           CIRCULAR 0.800    0 0 0 1
G01877           CIRCULAR 0.800    0 0 0 1
G01878           CIRCULAR 0.800    0 0 0 1
G01879           CIRCULAR 0.800    0 0 0 1
G01880           CIRCULAR 0.800    0 0 0 1
G01881           CIRCULAR 0.800    0 0 0 1
G01882           CIRCULAR 0.800    0 0 0 1
G01883           CIRCULAR 0.800    0 0 0 1
G01884           CIRCULAR 0.800    0 0 0 1
G01885           CIRCULAR 0.800    0 0 0 1
G01886           CIRCULAR 0.800    0 0 0 1
G01887           CIRCULAR 0.800    0 0 0 1
G01888           CIRCULAR 0.800    0 0 0 1
G01889           CIRCULAR 0.800    0 0 0 1
G01890           CIRCULAR 0.800    0 0 0 1
G01891           CIRCULAR 0.800    0 0 0 1
G01892           CIRCULAR 0.800    0 0 0 1
G01893           CIRCULAR 0.800    0 0 0 1
G01894           CIRCULAR 0.800    0 0 0 1
G01895           CIRCULAR 0.800    0 0 0 1
G01896           CIRCULAR 1.000    0 0 0 1
G01897           CIRCULAR 0.800    0 0 0 1
G01898           CIRCULAR 1.200    0 0 0 1
G01899           CIRCULAR 0.800    0 0 0 1
G01900           CIRCULAR 0.800    0 0 0 1
G01901           CIRCULAR 0.800    0 0 0 1
G01902           CIRCULAR 0.800    0 0 0 1
G01903           CIRCULAR 1.000    0 0 0 1
G01904           CIRCULAR 1.000    0 0 0 1
G01905           CIRCULAR 1.000    0 0 0 1
G01906           CIRCULAR 0.800    0 0 0 1
G01907           CIRCULAR 1.000    0 0 0 1
G01908           CIRCULAR 0.800    0 0 0 1
G01909           CIRCULAR 0.800    0 0 0 1
G01910           CIRCULAR 0.800    0 0 0 1
G01911           CIRCULAR 0.800    0 0 0 1
G01912           CIRCULAR 0.800    0 0 0 1
G01913           CIRCULAR 0.800    0 0 0 1
G01914           CIRCULAR 1.000    0 0 0 1
G01915           CIRCULAR 1.000    0 0 0 1
G01916           CIRCULAR 0.800    0 0 0 1
G01917           CIRCULAR 0.800    0 0 0 1
G01918           CIRCULAR 1.000    0 0 0 1
G01919           CIRCULAR 1.000    0 0 0 1
G01920           CIRCULAR 0.800    0 0 0 1
G01921           CIRCULAR 0.800    0 0 0 1
G01922           CIRCULAR 1.000    0 0 0 1
G01923           CIRCULAR 0.800    0 0 0 1
G01924           CIRCULAR 0.800    0 0 0 1
G01925           CIRCULAR 0.800    0 0 0 1
G01926           CIRCULAR 0.800    0 0 0 1
G01927           CIRCULAR 0.800    0 0 0 1
G01928           CIRCULAR 0.800    0 0 0 1
G01929           CIRCULAR 0.800    0 0 0 1
G01930           CIRCULAR 0.800    0 0 0 1
G01931           CIRCULAR 0.800    0 0 0 1
G01932           CIRCULAR 0.800    0 0 0 1
G01933           CIRCULAR 0.800    0 0 0 1
G01934           CIRCULAR 0.800    0 0 0 1
G01935           CIRCULAR 0.800    0 0 0 1
G01936           CIRCULAR 0.800    0 0 0 1
G01937           CIRCULAR 0.800    0 0 0 1
G01938           CIRCULAR 1.200    0 0 0 1
G01939           CIRCULAR 1.200    0 0 0 1
G01940           CIRCULAR 1.200    0 0 0 1
G01941           CIRCULAR 0.800    0 0 0 1
G01942           CIRCULAR 0.800    0 0 0 1
G01943           CIRCULAR 0.800    0 0 0 1
G01944           CIRCULAR 0.800    0 0 0 1
G01945           CIRCULAR 0.800    0 0 0 1
G01946           CIRCULAR 0.800    0 0 0 1
G01947           CIRCULAR 0.800    0 0 0 1
G01948           CIRCULAR 0.800    0 0 0 1
G01949           CIRCULAR 0.800    0 0 0 1
G01950           CIRCULAR 0.800    0 0 0 1
G01951           CIRCULAR 0.800    0 0 0 1
G01952           CIRCULAR 0.800    0 0 0 1
G01953           CIRCULAR 0.800    0 0 0 1
G01954           CIRCULAR 1.000    0 0 0 1
G01955           CIRCULAR 0.800    0 0 0 1
G01956           CIRCULAR 1.000    0 0 0 1
G01957           CIRCULAR 1.000    0 0 0 1
G01958           CIRCULAR 0.800    0 0 0 1
G01959           CIRCULAR 0.800    0 0 0 1
G01960           CIRCULAR 0.800    0 0 0 1
G01961           CIRCULAR 0.800    0 0 0 1
G01962           CIRCULAR 0.800    0 0 0 1
G01963           CIRCULAR 0.800    0 0 0 1
G01964           CIRCULAR 0.800    0 0 0 1
G01965           CIRCULAR 0.800    0 0 0 1
G01966           CIRCULAR 0.800    0 0 0 1
G01967           CIRCULAR 0.800    0 0 0 1
G01968           CIRCULAR 0.800    0 0 0 1
G01969           CIRCULAR 0.800    0 0 0 1
G01970           CIRCULAR 1.000    0 0 0 1
G01971           CIRCULAR 1.000    0 0 0 1
G01972           CIRCULAR 0.800    0 0 0 1
G01973           CIRCULAR 0.800    0 0 0 1
G01974           CIRCULAR 1.000    0 0 0 1
G01975           CIRCULAR 0.800    0 0 0 1
G01976           CIRCULAR 0.800    0 0 0 1
G01977           CIRCULAR 0.800    0 0 0 1
G01978           CIRCULAR 0.800    0 0 0 1
G01979           CIRCULAR 0.800    0 0 0 1
G01980           CIRCULAR 0.800    0 0 0 1
G01981           CIRCULAR 0.800    0 0 0 1
G01982           CIRCULAR 0.800    0 0 0 1
G01983           CIRCULAR 0.800    0 0 0 1
G01984           CIRCULAR 0.800    0 0 0 1
G01985           CIRCULAR 0.800    0 0 0 1
G01986           CIRCULAR 0.800    0 0 0 1
G01987           CIRCULAR 0.800    0 0 0 1
G01988           CIRCULAR 0.800    0 0 0 1
G01989           CIRCULAR 0.800    0 0 0 1
G01990           CIRCULAR 0.800    0 0 0 1
G01991           CIRCULAR 0.800    0 0 0 1
G01992           CIRCULAR 0.800    0 0 0 1
G01993           CIRCULAR 0.800    0 0 0 1
G01994           CIRCULAR 0.800    0 0 0 1
G01995           CIRCULAR 0.800    0 0 0 1
G01996           CIRCULAR 1.000    0 0 0 1
G01997           CIRCULAR 0.800    0 0 0 1
G01998           CIRCULAR 0.800    0 0 0 1
G01999           CIRCULAR 0.800    0 0 0 1
G02000           CIRCULAR 0.800    0 0 0 1
G02001           CIRCULAR 0.800    0 0 0 1
G02002           CIRCULAR 0.800    0 0 0 1
G02003           CIRCULAR 0.800    0 0 0 1
G02004           CIRCULAR 0.800    0 0 0 1
G02005           CIRCULAR 0.800    0 0 0 1
G02006           CIRCULAR 0.800    0 0 0 1
G02007           CIRCULAR 0.800    0 0 0 1
G02008           CIRCULAR 0.800    0 0 0 1
G02009           CIRCULAR 0.800    0 0 0 1
G02010           CIRCULAR 0.800    0 0 0 1
G02011           CIRCULAR 0.800    0 0 0 1
G02012           CIRCULAR 0.800    0 0 0 1
G02013           CIRCULAR 0.800    0 0 0 1
G02014           CIRCULAR 1.000    0 0 0 1
G02015           CIRCULAR 0.800    0 0 0 1
G02016           CIRCULAR 1.000    0 0 0 1
G02017           CIRCULAR 1.000    0 0 0 1
G02018           CIRCULAR 0.800    0 0 0 1
G02019           CIRCULAR 0.800    0 0 0 1
G02020           CIRCULAR 0.800    0 0 0 1
G02021           CIRCULAR 1.000    0 0 0 1
G02022           CIRCULAR 0.800    0 0 0 1
G02023           CIRCULAR 1.000    0 0 0 1
G02024           CIRCULAR 0.800    0 0 0 1
G02025           CIRCULAR 0.800    0 0 0 1
G02026           CIRCULAR 0.800    0 0 0 1
G02027           CIRCULAR 0.800    0 0 0 1
G02028           CIRCULAR 0.800    0 0 0 1
G02029           CIRCULAR 0.800    0 0 0 1
G02030           CIRCULAR 0.800    0 0 0 1
G02031           CIRCULAR 0.800    0 0 0 1
G02032           CIRCULAR 0.800    0 0 0 1
G02033           CIRCULAR 0.800    0 0 0 1
G02034           CIRCULAR 0.800    0 0 0 1
G02035           CIRCULAR 0.800    0 0 0 1
G02036           CIRCULAR 0.800    0 0 0 1
G02037           CIRCULAR 0.800    0 0 0 1
G02038           CIRCULAR 0.800    0 0 0 1
G02039           CIRCULAR 0.800    0 0 0 1
G02040           CIRCULAR 0.800    0 0 0 1
G02041           CIRCULAR 0.800    0 0 0 1
G02042           CIRCULAR 1.000    0 0 0 1
G02043           CIRCULAR 1.000    0 0 0 1
G02044           CIRCULAR 0.800    0 0 0 1
G02045           CIRCULAR 0.800    0 0 0 1
G02046           CIRCULAR 0.800    0 0 0 1
G02047           CIRCULAR 0.800    0 0 0 1
G02048           CIRCULAR 1.000    0 0 0 1
G02049           CIRCULAR 1.000    0 0 0 1
G02050           CIRCULAR 0.800    0 0 0 1
G02051           CIRCULAR 0.800    0 0 0 1
G02052           CIRCULAR 0.800    0 0 0 1
G02053           CIRCULAR 0.800    0 0 0 1
G02054           CIRCULAR 0.800    0 0 0 1
G02055           CIRCULAR 0.800    0 0 0 1
O00001           CIRCULAR 0.800    0 0 0 1
O00002           CIRCULAR 1.000    0 0 0 1
O00003           CIRCULAR 1.000    0 0 0 1
O00004           CIRCULAR 1.000    0 0 0 1
O00005           CIRCULAR 1.000    0 0 0 1
O00006           CIRCULAR 0.800    0 0 0 1
O00007           CIRCULAR 0.800    0 0 0 1
O00008           CIRCULAR 1.200    0 0 0 1
O00009           CIRCULAR 1.000    0 0 0 1
O00010           CIRCULAR 1.000    0 0 0 1
O00011           CIRCULAR 0.800    0 0 0 1
O00012           CIRCULAR 0.800    0 0 0 1
O00013           CIRCULAR 1.000    0 0 0 1
O00014           CIRCULAR 1.000    0 0 0 1
O00015           CIRCULAR 1.000    0 0 0 1
O00016           CIRCULAR 0.800    0 0 0 1
O00017           CIRCULAR 1.200    0 0 0 1
O00018           CIRCULAR 1.000    0 0 0 1
O00019           CIRCULAR 1.000    0 0 0 1
O00020           CIRCULAR 1.000    0 0 0 1
O00021           CIRCULAR 0.800    0 0 0 1
O00022           CIRCULAR 0.800    0 0 0 1
O00023           CIRCULAR 1.000    0 0 0 1
O00024           CIRCULAR 1.200    0 0 0 1
O00025           CIRCULAR 0.800    0 0 0 1
O00026           CIRCULAR 0.800    0 0 0 1
O00027           CIRCULAR 1.000    0 0 0 1
O00028           CIRCULAR 1.200    0 0 0 1
O00029           CIRCULAR 1.000    0 0 0 1
O00030           CIRCULAR 0.800    0 0 0 1
O00031           CIRCULAR 0.800    0 0 0 1
O00032           CIRCULAR 1.000    0 0 0 1
O00033           CIRCULAR 1.000    0 0 0 1
O00034           CIRCULAR 0.800    0 0 0 1
O00035           CIRCULAR 0.800    0 0 0 1
O00036           CIRCULAR 1.000    0 0 0 1
O00037           CIRCULAR 0.800    0 0 0 1
O00038           CIRCULAR 0.800    0 0 0 1
O00039           CIRCULAR 0.800    0 0 0 1
O00040           CIRCULAR 0.800    0 0 0 1
O00041           CIRCULAR 1.000    0 0 0 1
O00042           CIRCULAR 1.000    0 0 0 1
O00043           CIRCULAR 0.800    0 0 0 1
O00044           CIRCULAR 0.800    0 0 0 1
O00045           CIRCULAR 0.800    0 0 0 1
O00046           CIRCULAR 1.000    0 0 0 1
O00047           CIRCULAR 1.000    0 0 0 1
O00048           CIRCULAR 0.800    0 0 0 1
O00049           CIRCULAR 1.000    0 0 0 1
O00050           CIRCULAR 0.800    0 0 0 1
O00051           CIRCULAR 1.000    0 0 0 1
O00052           CIRCULAR 0.800    0 0 0 1
O00053           CIRCULAR 1.000    0 0 0 1
O00054           CIRCULAR 1.000    0 0 0 1
O00055           CIRCULAR 0.800    0 0 0 1
O00056           CIRCULAR 1.000    0 0 0 1
O00057           CIRCULAR 1.000    0 0 0 1
O00058           CIRCULAR 1.000    0 0 0 1
O00059           CIRCULAR 0.800    0 0 0 1
O00060           CIRCULAR 0.800    0 0 0 1
O00061           CIRCULAR 0.800    0 0 0 1
O00062           CIRCULAR 0.800    0 0 0 1
O00063           CIRCULAR 0.800    0 0 0 1
O00064           CIRCULAR 0.800    0 0 0 1
O00065           CIRCULAR 0.800    0 0 0 1
O00066           CIRCULAR 1.000    0 0 0 1
O00067           CIRCULAR 0.800    0 0 0 1
O00068           CIRCULAR 0.800    0 0 0 1
O00069           CIRCULAR 1.000    0 0 0 1
O00070           CIRCULAR 0.800    0 0 0 1
O00071           CIRCULAR 0.800    0 0 0 1
O00072           CIRCULAR 0.800    0 0 0 1
O00073           CIRCULAR 0.800    0 0 0 1
O00074           CIRCULAR 0.800    0 0 0 1
O00075           CIRCULAR 1.000    0 0 0 1
O00076           CIRCULAR 1.000    0 0 0 1
O00077           CIRCULAR 1.000    0 0 0 1
O00078           CIRCULAR 0.800    0 0 0 1
O00079           CIRCULAR 0.800    0 0 0 1
O00080           CIRCULAR 0.800    0 0 0 1
O00081           CIRCULAR 0.800    0 0 0 1
O00082           CIRCULAR 1.200    0 0 0 1
O00083           CIRCULAR 0.800    0 0 0 1
O00084           CIRCULAR 0.800    0 0 0 1
O00085           CIRCULAR 1.200    0 0 0 1
O00086           CIRCULAR 1.000    0 0 0 1
O00087           CIRCULAR 1.000    0 0 0 1
O00088           CIRCULAR 0.800    0 0 0 1
O00089           CIRCULAR 0.800    0 0 0 1
O00090           CIRCULAR 1.000    0 0 0 1
O00091           CIRCULAR 1.000    0 0 0 1
O00092           CIRCULAR 0.800    0 0 0 1
O00093           CIRCULAR 1.200    0 0 0 1
O00094           CIRCULAR 1.200    0 0 0 1
O00095           CIRCULAR 0.800    0 0 0 1
O00096           CIRCULAR 0.800    0 0 0 1
O00097           CIRCULAR 0.800    0 0 0 1
O00098           CIRCULAR 1.000    0 0 0 1
O00099           CIRCULAR 1.000    0 0 0 1
O00100           CIRCULAR 1.000    0 0 0 1
O00101           CIRCULAR 0.800    0 0 0 1
O00102           CIRCULAR 0.800    0 0 0 1
O00103           CIRCULAR 1.000    0 0 0 1
O00104           CIRCULAR 1.000    0 0 0 1
O00105           CIRCULAR 1.000    0 0 0 1
O00106           CIRCULAR 1.200    0 0 0 1
O00107           CIRCULAR 1.000    0 0 0 1
O00108           CIRCULAR 0.800    0 0 0 1
O00109           CIRCULAR 0.800    0 0 0 1
O00110           CIRCULAR 0.800    0 0 0 1
O00111           CIRCULAR 0.800    0 0 0 1
O00112           CIRCULAR 1.000    0 0 0 1
O00113           CIRCULAR 1.000    0 0 0 1
O00114           CIRCULAR 0.800    0 0 0 1
O00115           CIRCULAR 0.800    0 0 0 1
O00116           CIRCULAR 0.800    0 0 0 1
O00117           CIRCULAR 0.800    0 0 0 1
O00118           CIRCULAR 0.800    0 0 0 1
O00119           CIRCULAR 0.800    0 0 0 1
O00120           CIRCULAR 1.000    0 0 0 1
O00121           CIRCULAR 1.000    0 0 0 1
O00122           CIRCULAR 0.800    0 0 0 1
O00123           CIRCULAR 1.000    0 0 0 1
O00124           CIRCULAR 1.000    0 0 0 1
O00125           CIRCULAR 0.800    0 0 0 1
O00126           CIRCULAR 0.800    0 0 0 1
O00127           CIRCULAR 0.800    0 0 0 1
O00128           CIRCULAR 1.000    0 0 0 1
O00129           CIRCULAR 0.800    0 0 0 1
O00130           CIRCULAR 0.800    0 0 0 1
O00131           CIRCULAR 1.000    0 0 0 1
O00132           CIRCULAR 1.000    0 0 0 1
O00133           CIRCULAR 0.800    0 0 0 1
O00134           CIRCULAR 1.000    0 0 0 1
O00135           CIRCULAR 1.000    0 0 0 1
O00136           CIRCULAR 1.200    0 0 0 1
O00137           CIRCULAR 0.800    0 0 0 1
O00138           CIRCULAR 0.800    0 0 0 1
O00139           CIRCULAR 0.800    0 0 0 1
O00140           CIRCULAR 1.000    0 0 0 1
O00141           CIRCULAR 1.000    0 0 0 1
O00142           CIRCULAR 0.800    0 0 0 1
O00143           CIRCULAR 0.800    0 0 0 1
O00144           CIRCULAR 0.800    0 0 0 1
O00145           CIRCULAR 0.800    0 0 0 1
O00146           CIRCULAR 0.800    0 0 0 1
O00147           CIRCULAR 0.800    0 0 0 1
O00148           CIRCULAR 0.800    0 0 0 1
O00149           CIRCULAR 1.200    0 0 0 1
O00150           CIRCULAR 1.000    0 0 0 1
O00151           CIRCULAR 0.800    0 0 0 1
O00152           CIRCULAR 0.800    0 0 0 1
O00153           CIRCULAR 1.000    0 0 0 1
O00154           CIRCULAR 1.000    0 0 0 1
O00155           CIRCULAR 0.800    0 0 0 1
O00156           CIRCULAR 1.000    0 0 0 1
O00157           CIRCULAR 0.800    0 0 0 1
O00158           CIRCULAR 0.800    0 0 0 1
O00159           CIRCULAR 0.800    0 0 0 1
O00160           CIRCULAR 0.800    0 0 0 1
O00161           CIRCULAR 0.800    0 0 0 1
O00162           CIRCULAR 0.800    0 0 0 1
O00163           CIRCULAR 0.800    0 0 0 1
O00164           CIRCULAR 1.200    0 0 0 1
O00165           CIRCULAR 1.000    0 0 0 1
O00166           CIRCULAR 0.800    0 0 0 1
O00167           CIRCULAR 0.800    0 0 0 1
O00168           CIRCULAR 1.000    0 0 0 1
O00169           CIRCULAR 0.800    0 0 0 1
O00170           CIRCULAR 0.800    0 0 0 1
O00171           CIRCULAR 0.800    0 0 0 1
O00172           CIRCULAR 0.800    0 0 0 1
O00173           CIRCULAR 0.800    0 0 0 1
O00174           CIRCULAR 1.000    0 0 0 1
O00175           CIRCULAR 0.800    0 0 0 1
O00176           CIRCULAR 1.000    0 0 0 1
O00177           CIRCULAR 1.000    0 0 0 1
O00178           CIRCULAR 1.000    0 0 0 1
O00179           CIRCULAR 0.800    0 0 0 1
O00180           CIRCULAR 0.800    0 0 0 1
O00181           CIRCULAR 1.000    0 0 0 1
O00182           CIRCULAR 1.000    0 0 0 1
O00183           CIRCULAR 1.200    0 0 0 1
O00184           CIRCULAR 0.800    0 0 0 1
O00185           CIRCULAR 1.200    0 0 0 1
O00186           CIRCULAR 0.800    0 0 0 1
O00187           CIRCULAR 0.800    0 0 0 1
O00188           CIRCULAR 0.800    0 0 0 1
O00189           CIRCULAR 0.800    0 0 0 1
O00190           CIRCULAR 1.000    0 0 0 1
O00191           CIRCULAR 0.800    0 0 0 1
O00192           CIRCULAR 0.800    0 0 0 1
O00193           CIRCULAR 0.800    0 0 0 1
O00194           CIRCULAR 1.000    0 0 0 1
O00195           CIRCULAR 1.000    0 0 0 1
O00196           CIRCULAR 0.800    0 0 0 1
O00197           CIRCULAR 0.800    0 0 0 1
O00198           CIRCULAR 0.800    0 0 0 1
O00199           CIRCULAR 0.800    0 0 0 1
O00200           CIRCULAR 0.800    0 0 0 1
O00201           CIRCULAR 1.000    0 0 0 1
O00202           CIRCULAR 1.000    0 0 0 1
O00203           CIRCULAR 0.800    0 0 0 1
O00204           CIRCULAR 1.000    0 0 0 1
O00205           CIRCULAR 1.200    0 0 0 1
O00206           CIRCULAR 0.800    0 0 0 1
O00207           CIRCULAR 0.800    0 0 0 1
O00208           CIRCULAR 1.000    0 0 0 1
O00209           CIRCULAR 0.800    0 0 0 1
O00210           CIRCULAR 0.800    0 0 0 1
O00211           CIRCULAR 0.800    0 0 0 1
O00212           CIRCULAR 0.800    0 0 0 1
O00213           CIRCULAR 1.000    0 0 0 1
O00214           CIRCULAR 1.000    0 0 0 1
O00215           CIRCULAR 0.800    0 0 0 1
O00216           CIRCULAR 0.800    0 0 0 1
O00217           CIRCULAR 0.800    0 0 0 1
O00218           CIRCULAR 0.800    0 0 0 1
O00219           CIRCULAR 1.200    0 0 0 1
O00220           CIRCULAR 0.800    0 0 0 1
O00221           CIRCULAR 0.800    0 0 0 1

[COORDINATES]
N01738           6870.000     3010.000    
N01421           6930.000     4310.000    
N02241           4670.000     6450.000    
N00314           1970.000     5570.000    
N02766           7350.000     2770.000    
N00947           6790.000     7250.000    
N00339           7870.000     3190.000    
N01471           2890.000     1670.000    
N00113           2390.000     2270.000    
N01218           7470.000     7150.000    
N02236           4730.000     6430.000    
N00312           2550.000     5490.000    
N00220           4970.000     2110.000    
N00700           2330.000     5530.000    
N00387           7850.000     1750.000    
N01352           7330.000     790.000     
N00688           5050.000     3670.000    
N00020           6630.000     3310.000    
N02099           2270.000     5090.000    
N00335           7370.000     3310.000    
N01681           5810.000     2210.000    
N02191           4710.000     370.000     
N00887           7210.000     4150.000    
N00270           6290.000     2090.000    
N01858           7130.000     4170.000    
N02845           6130.000     5710.000    
N01274           3450.000     2490.000    
N02676           2470.000     3670.000    
N00902           5250.000     870.000     
N00996           6250.000     5970.000    
N01333           3730.000     1910.000    
N02268           6150.000     6710.000    
N02162           8810.000     4330.000    
N00160           2130.000     2470.000    
N01373           1650.000     2190.000    
N01720           6650.000     3010.000    
N01693           7270.000     2990.000    
N01025           2090.000     2610.000    
N00607           990.000      4190.000    
N02557           6470.000     6870.000    
N02251           4110.000     5970.000    
N01691           6890.000     3010.000    
N01361           4710.000     5910.000    
N01936           4570.000     3610.000    
N00946           6630.000     7270.000    
N01317           1230.000     2890.000    
N00252           5490.000     2230.000    
N00326           6770.000     2070.000    
N02127           7970.000     5090.000    
N01772           6370.000     2550.000    
N00249           5490.000     2050.000    
N02166           9010.000     4290.000    
N01694           5830.000     3050.000    
N02046           5170.000     5070.000    
N02297           7090.000     6670.000    
N01927           3790.000     2950.000    
N02292           7810.000     6630.000    
N02840           5310.000     6250.000    
N02302           7110.000     6990.000    
N00156           2190.000     3030.000    
N01953           3390.000     2550.000    
N02699           5090.000     990.000     
N02057           2710.000     3850.000    
N01798           5750.000     3950.000    
N01650           1230.000     2210.000    
N00177           2470.000     2310.000    
N00618           2250.000     5090.000    
N01754           6910.000     2770.000    
N01842           6230.000     4390.000    
N02110           8010.000     6050.000    
N00133           4850.000     250.000     
N01857           7130.000     3450.000    
N02547           6530.000     6250.000    
N01770           6410.000     2550.000    
N00153           2490.000     2010.000    
N01685           5810.000     2350.000    
N01575           6170.000     2750.000    
N01658           3410.000     3230.000    
N00214           5450.000     2310.000    
N02671           2310.000     3150.000    
N01930           3690.000     2930.000    
N02844           6230.000     5950.000    
N02509           10170.000    5430.000    
N00541           7110.000     5530.000    
N00815           5450.000     2010.000    
N00661           2610.000     2030.000    
N00111           2530.000     1950.000    
N01076           3710.000     3270.000    
N02466           7430.000     4330.000    
N00641           4990.000     230.000     
N00412           5530.000     4370.000    
N00161           2030.000     2230.000    
N00923           970.000      2870.000    
N01460           2250.000     3050.000    
N01450           6870.000     3050.000    
N00095           270.000      1950.000    
N02299           6850.000     6330.000    
N01082           7350.000     1730.000    
N02640           3030.000     3570.000    
N01258           4510.000     4150.000    
N00872           6710.000     670.000     
N01576           5810.000     2710.000    
N02609           4190.000     1610.000    
N02627           4310.000     2070.000    
N01070           5230.000     4570.000    
N01021           590.000      2850.000    
N00228           5750.000     2110.000    
N00388           7970.000     2010.000    
N00248           5470.000     2270.000    
N00026           7930.000     3870.000    
N02328           6450.000     590.000     
N01539           5830.000     2150.000    
N01584           3070.000     2390.000    
N02144           7990.000     3890.000    
N02795           7990.000     5870.000    
N02074           2250.000     3690.000    
N02023           5710.000     5270.000    
N00208           3130.000     3150.000    
N01045           2330.000     3110.000    
N00346           7130.000     2510.000    
N00596           9950.000     5950.000    
N01186           10330.000    5410.000    
N01822           6830.000     3710.000    
N02169           8770.000     4290.000    
N00800           2850.000     2990.000    
N01641           5130.000     190.000     
N00055           7410.000     5010.000    
N00570           7450.000     6310.000    
N01012           7590.000     1230.000    
N01344           2690.000     2290.000    
N01310           810.000      2530.000    
N00007           1710.000     2190.000    
N01663           7070.000     890.000     
N00162           2510.000     3110.000    
N00856           5310.000     5070.000    
N00983           6430.000     5910.000    
N01052           1350.000     4210.000    
N01786           5610.000     2570.000    
N02081           8310.000     3170.000    
N00074           5050.000     6150.000    
N01723           6830.000     3010.000    
N01781           6190.000     2530.000    
N01121           5510.000     3930.000    
N00655           5990.000     350.000     
N01878           4670.000     2150.000    
N02548           6090.000     6510.000    
N01077           5110.000     3390.000    
N00425           7310.000     5270.000    
N00194           3870.000     2110.000    
N01425           6270.000     3950.000    
N02812           7410.000     3270.000    
N00643           5290.000     150.000     
N01871           7370.000     3650.000    
N01707           5970.000     2790.000    
N01761           7250.000     2510.000    
N02588           10190.000    5710.000    
N01296           6450.000     2130.000    
N02383           4770.000     390.000     
N02515           4490.000     5850.000    
N02212           7390.000     3450.000    
N00295           6190.000     3650.000    
N00707           4790.000     5770.000    
N01432           5990.000     3410.000    
N00040           6430.000     3330.000    
N02210           6990.000     3350.000    
N01821           6230.000     4150.000    
N00820           5210.000     2110.000    
N02331           6330.000     1010.000    
N02445           7370.000     2750.000    
N01964           4770.000     3450.000    
N02707           3370.000     2730.000    
N00668           8150.000     6370.000    
N00689           5250.000     3650.000    
N02658           2510.000     3510.000    
N02520           2430.000     3110.000    
N00114           2270.000     2670.000    
N01544           5390.000     790.000     
N01441           6250.000     3930.000    
N01453           6070.000     3310.000    
N01147           8450.000     6510.000    
N01404           6950.000     1450.000    
N01049           1350.000     4170.000    
N01935           4570.000     3430.000    
N00283           5530.000     3450.000    
N00984           6570.000     5910.000    
N01309           1190.000     2590.000    
N00611           330.000      3990.000    
N00925           430.000      2870.000    
N00128           2970.000     1510.000    
N00682           4010.000     4010.000    
N01959           4470.000     4210.000    
N01853           6910.000     3930.000    
N02791           7390.000     4250.000    
N00069           1610.000     2190.000    
N02528           1710.000     4410.000    
N00705           1950.000     4830.000    
N01877           4650.000     2130.000    
N02364           6910.000     1630.000    
N00568           7430.000     6510.000    
N00202           3350.000     3330.000    
N01284           2250.000     5510.000    
N02053           4010.000     3990.000    
N02687           2190.000     3730.000    
N02454           5810.000     3150.000    
N01792           5850.000     3670.000    
N02123           7890.000     5090.000    
N01706           5830.000     2810.000    
N00429           7950.000     6350.000    
N02496           5750.000     50.000      
N02761           5410.000     2890.000    
N00015           7070.000     2070.000    
N01302           6130.000     3030.000    
N02584           9390.000     5070.000    
N00799           3330.000     2890.000    
N01824           5530.000     4750.000    
N02470           7410.000     4330.000    
N01924           5050.000     3430.000    
N01727           6650.000     2570.000    
N00171           3370.000     2330.000    
N01429           6910.000     4130.000    
N02291           7310.000     6650.000    
N00200           3290.000     3270.000    
N02542           6070.000     6630.000    
N01422           6850.000     3930.000    
N01240           4470.000     6250.000    
N00628           7850.000     1670.000    
N00534           9370.000     5010.000    
N00263           6070.000     1950.000    
N01122           7150.000     3570.000    
N02730           9530.000     5310.000    
N01331           7390.000     6130.000    
N00673           190.000      2430.000    
N02746           3270.000     3050.000    
N01137           9050.000     5150.000    
N02586           9130.000     4730.000    
N02639           2770.000     3790.000    
N00863           7370.000     6770.000    
N00653           6970.000     470.000     
N00297           6170.000     3510.000    
N02319           7790.000     2030.000    
N02021           5130.000     5070.000    
N01116           6790.000     3390.000    
N00452           7430.000     5010.000    
N01457           8370.000     3310.000    
N02504           7130.000     6150.000    
N00890           7950.000     2830.000    
N00911           10350.000    5330.000    
N02438           830.000      2510.000    
N01325           7150.000     6150.000    
N02722           9310.000     4990.000    
N00549           7390.000     5330.000    
N02607           4170.000     1650.000    
N02254           4490.000     6270.000    
N02667           3050.000     3590.000    
N00882           7630.000     2790.000    
N01528           6610.000     5730.000    
N01652           1590.000     2190.000    
N02798           9450.000     5210.000    
N02373           7010.000     1410.000    
N01399           1490.000     2930.000    
N01340           3570.000     3190.000    
N00821           5390.000     2130.000    
N00706           2470.000     5530.000    
N01034           6870.000     3330.000    
N01812           5750.000     3730.000    
N00933           6410.000     570.000     
N02301           7110.000     6850.000    
N02145           3270.000     3150.000    
N01646           470.000      2050.000    
N00681           4270.000     4090.000    
N02689           1710.000     4390.000    
N02541           7430.000     890.000     
N01667           7950.000     5390.000    
N00718           2670.000     4890.000    
N01486           3510.000     2290.000    
N01686           5810.000     2550.000    
N02552           6070.000     6730.000    
N02785           2570.000     3210.000    
N02388           5070.000     930.000     
N02088           8310.000     2750.000    
N02575           5130.000     1010.000    
N02175           2590.000     2130.000    
N00569           7430.000     6430.000    
N02020           5210.000     5050.000    
N01726           6650.000     2770.000    
N00832           7330.000     770.000     
N02113           8010.000     5510.000    
N00002           390.000      2130.000    
N02754           7450.000     3930.000    
N02439           1070.000     2550.000    
N01164           5990.000     50.000      
N00660           2550.000     2130.000    
N02462           7290.000     4370.000    
N00635           6030.000     50.000      
N01845           6710.000     4210.000    
N00426           7410.000     5110.000    
N01212           7410.000     6790.000    
N02107           2630.000     5110.000    
N01054           1210.000     4150.000    
N01080           7310.000     1410.000    
N01560           3990.000     4010.000    
N00017           7590.000     2070.000    
N00306           6350.000     3450.000    
N00140           5710.000     50.000      
N02001           5210.000     4290.000    
N02066           2330.000     4570.000    
N02273           6530.000     7290.000    
N01925           4750.000     3410.000    
N02510           10110.000    5590.000    
N02368           6950.000     1430.000    
N02096           2590.000     5090.000    
N02298           7090.000     6430.000    
N00019           6450.000     3430.000    
N00698           2130.000     5530.000    
N02437           590.000      2490.000    
N00955           7750.000     3890.000    
N00914           170.000      2750.000    
N00241           5270.000     2170.000    
N01732           6170.000     2790.000    
N00355           7890.000     3470.000    
N00634           6150.000     70.000      
N02836           6590.000     5650.000    
N00851           5770.000     6070.000    
N01578           7750.000     3870.000    
N00723           2770.000     4810.000    
N01815           5870.000     3990.000    
N00656           5990.000     410.000     
N00722           2870.000     4630.000    
N00021           6710.000     3390.000    
N02149           3330.000     2990.000    
N00399           7830.000     1850.000    
N01626           7330.000     1250.000    
N01498           7910.000     2250.000    
N00309           5670.000     3450.000    
N00265           6150.000     1890.000    
N00101           2150.000     2250.000    
N01991           5070.000     4730.000    
N00545           7430.000     4910.000    
N01553           5510.000     3710.000    
N00281           5590.000     3390.000    
N02028           4550.000     4910.000    
N00702           2950.000     4410.000    
N02018           5870.000     5410.000    
N01843           6170.000     3990.000    
N00236           6390.000     130.000     
N01566           9910.000     5730.000    
N01854           6910.000     3910.000    
N02409           5510.000     6370.000    
N01784           5610.000     2590.000    
N02638           8470.000     5070.000    
N02661           2770.000     3350.000    
N01561           3770.000     3950.000    
N00291           6190.000     3390.000    
N01609           7830.000     1670.000    
N02426           190.000      2450.000    
N02446           7350.000     2730.000    
N01536           10230.000    5310.000    
N01264           4550.000     4970.000    
N01337           2050.000     5570.000    
N01276           2810.000     4730.000    
N00930           170.000      3990.000    
N01370           1990.000     2630.000    
N01279           4590.000     4890.000    
N02731           9370.000     5070.000    
N02820           4850.000     2250.000    
N02681           2470.000     3750.000    
N00510           5310.000     5930.000    
N02215           5030.000     6550.000    
N01281           1730.000     5110.000    
N01722           6650.000     2810.000    
N02809           2970.000     3190.000    
N00318           2670.000     4950.000    
N02391           4330.000     1810.000    
N01911           3490.000     3250.000    
N01718           6610.000     3010.000    
N00450           7330.000     5110.000    
N01619           6010.000     510.000     
N01631           4790.000     330.000     
N01785           5470.000     2610.000    
N02308           7410.000     7030.000    
N02259           4450.000     6230.000    
N02256           4090.000     5950.000    
N02372           6890.000     1830.000    
N02786           2650.000     3310.000    
N02022           5410.000     5090.000    
N02014           5350.000     4690.000    
N02432           6050.000     50.000      
N02108           2650.000     5050.000    
N00633           6550.000     210.000     
N01072           5510.000     5030.000    
N02468           7470.000     4370.000    
N00490           5170.000     5950.000    
N01133           7910.000     2930.000    
N01394           210.000      2310.000    
N02117           7990.000     4950.000    
N02434           6070.000     50.000      
N01734           6590.000     2770.000    
N01372           1610.000     2730.000    
N01252           7750.000     5110.000    
N01692           7090.000     2990.000    
N01013           7490.000     1090.000    
N02502           7010.000     5610.000    
N01449           6210.000     4390.000    
N01893           4730.000     4210.000    
N00257           6210.000     2130.000    
N01371           1730.000     2690.000    
N00985           5950.000     6030.000    
N02262           4470.000     6270.000    
N02382           3410.000     2690.000    
N00433           7430.000     6590.000    
N01313           330.000      2430.000    
N01904           4170.000     3290.000    
N00166           1890.000     3050.000    
N00458           6690.000     5690.000    
N00639           5850.000     50.000      
N00686           3530.000     3890.000    
N01214           7650.000     6630.000    
N02775           3490.000     5070.000    
N01748           6790.000     2110.000    
N02315           6910.000     2110.000    
N02173           7090.000     3010.000    
N01525           7950.000     4210.000    
N00271           6350.000     2150.000    
N02688           2110.000     3950.000    
N01974           4450.000     4150.000    
N01513           9670.000     5490.000    
N01929           3490.000     2910.000    
N00875           7370.000     3790.000    
N01334           3890.000     1830.000    
N01730           6810.000     2770.000    
N01682           5830.000     3310.000    
N01914           2830.000     3150.000    
N01428           6910.000     3970.000    
N02564           7850.000     3370.000    
N00674           6150.000     2310.000    
N01154           8490.000     6510.000    
N02490           7310.000     1390.000    
N01009           5690.000     5270.000    
N00552           5930.000     5410.000    
N00873           6870.000     850.000     
N02408           5510.000     6330.000    
N01549           7650.000     2790.000    
N02539           7390.000     930.000     
N00400           6030.000     570.000     
N02090           8290.000     2590.000    
N02663           2750.000     3530.000    
N00654           6410.000     150.000     
N01794           5510.000     4170.000    
N01550           8010.000     5550.000    
N01062           4170.000     6410.000    
N00315           2570.000     5390.000    
N00187           3430.000     2250.000    
N00219           5390.000     2150.000    
N00189           3610.000     2010.000    
N00307           5670.000     3430.000    
N01508           8750.000     4150.000    
N00188           3510.000     2130.000    
N01084           5470.000     2310.000    
N00670           70.000       3890.000    
N00591           10110.000    5550.000    
N00428           7470.000     5330.000    
N01737           6670.000     3010.000    
N00363           7990.000     3330.000    
N02622           3230.000     2370.000    
N02116           7950.000     4490.000    
N00137           5270.000     90.000      
N01949           3350.000     2910.000    
N02628           4510.000     2110.000    
N02662           2510.000     3530.000    
N00053           4410.000     4790.000    
N01729           6670.000     2790.000    
N00057           7410.000     4410.000    
N00480           5330.000     5850.000    
N00555           6910.000     5670.000    
N00259           5950.000     2050.000    
N01047           1690.000     4430.000    
N00118           2050.000     3130.000    
N02721           5790.000     6310.000    
N01324           4630.000     5810.000    
N02079           2230.000     3510.000    
N01594           9930.000     5870.000    
N00157           1850.000     2970.000    
N01591           6030.000     6710.000    
N00333           7350.000     3650.000    
N00204           3250.000     3670.000    
N01823           5530.000     4430.000    
N00802           3190.000     3030.000    
N02555           6070.000     6670.000    
N02587           10370.000    5890.000    
N01144           8410.000     6370.000    
N00852           6650.000     6050.000    
N01326           7350.000     6250.000    
N00096           290.000      1770.000    
N02374           7310.000     1350.000    
N01064           4570.000     6670.000    
N02734           9390.000     5010.000    
N00350           7910.000     3430.000    
N01395           270.000      1830.000    
N01565           10030.000    5770.000    
N01954           2550.000     2430.000    
N01743           6850.000     2510.000    
N01042           2190.000     3670.000    
N02765           7370.000     2930.000    
N02142           7590.000     3890.000    
N00551           5730.000     5250.000    
N00024           7350.000     6990.000    
N00792           2970.000     2350.000    
N00430           7930.000     6470.000    
N01736           6190.000     3030.000    
N02829           6630.000     6930.000    
N01689           5790.000     2210.000    
N00301           5710.000     3370.000    
N02010           4950.000     4690.000    
N00115           2230.000     2770.000    
N01056           1490.000     4270.000    
N00676           5470.000     1710.000    
N01086           7410.000     3130.000    
N01485           3430.000     2370.000    
N00334           7370.000     3450.000    
N00075           5170.000     6190.000    
N00901           5110.000     970.000     
N01007           7110.000     6110.000    
N01066           5470.000     2530.000    
N02425           4550.000     3650.000    
N02176           2530.000     2270.000    
N00005           1970.000     2190.000    
N02563           1270.000     2950.000    
N01277           2630.000     5030.000    
N01712           6190.000     2590.000    
N01563           9850.000     5770.000    
N01162           5950.000     270.000     
N01683           5790.000     2350.000    
N02612           6890.000     3970.000    
N00878           7650.000     2770.000    
N02300           7110.000     6670.000    
N02131           7930.000     3910.000    
N02503           6930.000     6050.000    
N01918           4150.000     3350.000    
N01363           2670.000     5410.000    
N00818           5030.000     2110.000    
N00629           6410.000     210.000     
N01844           6190.000     3910.000    
N01942           2890.000     2670.000    
N00255           6050.000     2010.000    
N00951           6650.000     7170.000    
N00602           1970.000     4990.000    
N01495           6870.000     2030.000    
N00949           6950.000     7150.000    
N01807           5850.000     4190.000    
N01637           5550.000     130.000     
N00184           2150.000     2090.000    
N02120           8030.000     5070.000    
N01474           5170.000     950.000     
N01458           10130.000    5950.000    
N01241           4430.000     6070.000    
N02648           2890.000     3810.000    
N01711           6190.000     2990.000    
N02441           7610.000     3370.000    
N01931           3350.000     3250.000    
N01856           7010.000     3670.000    
N00136           5150.000     130.000     
N01733           6390.000     2770.000    
N01728           6830.000     2770.000    
N02842           5690.000     150.000     
N01412           3130.000     4070.000    
N00848           3850.000     6550.000    
N02685           2210.000     3630.000    
N01876           5410.000     2450.000    
N00625           7570.000     1110.000    
N01524           9290.000     4910.000    
N00274           5190.000     3470.000    
N00809           4290.000     2030.000    
N01907           4890.000     3390.000    
N01040           2690.000     5110.000    
N00927           90.000       3830.000    
N01775           6550.000     2530.000    
N01482           3290.000     2290.000    
N01466           2530.000     2510.000    
N01026           2090.000     2630.000    
N00181           3610.000     2070.000    
N01766           6870.000     2770.000    
N01705           5710.000     2810.000    
N02163           8810.000     4290.000    
N01634           4730.000     370.000     
N02284           6730.000     6050.000    
N01941           3430.000     2710.000    
N01943           2890.000     2830.000    
N02146           3330.000     3030.000    
N02655           2890.000     3790.000    
N01290           7470.000     2750.000    
N00213           6890.000     390.000     
N01865           7150.000     3690.000    
N00294           6250.000     3370.000    
N00427           7550.000     5190.000    
N02660           2730.000     3530.000    
N01922           5090.000     3450.000    
N01696           5950.000     3050.000    
N01311           630.000      2530.000    
N00994           5630.000     6050.000    
N01891           4950.000     4230.000    
N02309           7670.000     6930.000    
N02644           3150.000     4050.000    
N00332           7410.000     3890.000    
N00916           150.000      2630.000    
N01346           2630.000     2290.000    
N00813           4170.000     2070.000    
N00791           2410.000     5570.000    
N01958           4510.000     4090.000    
N01783           6170.000     2550.000    
N01443           6810.000     3910.000    
N01015           1270.000     2590.000    
N01124           7050.000     5570.000    
N01305           1210.000     3010.000    
N02086           8290.000     2830.000    
N00045           9870.000     4910.000    
N01387           2710.000     1730.000    
N00359           8030.000     3350.000    
N00125           2610.000     1810.000    
N01288           7970.000     5630.000    
N02101           2310.000     5110.000    
N00869           4730.000     310.000     
N02181           3010.000     1590.000    
N01944           2710.000     2630.000    
N00237           6590.000     210.000     
N02064           2110.000     4770.000    
N00997           6410.000     5910.000    
N00033           6770.000     6010.000    
N01440           6150.000     3730.000    
N00260           6090.000     1970.000    
N02406           5090.000     6170.000    
N00494           4890.000     5830.000    
N01987           5070.000     4710.000    
N00699           2210.000     5590.000    
N02518           3370.000     2850.000    
N00122           2170.000     2290.000    
N01010           6110.000     5930.000    
N01926           3630.000     2930.000    
N01833           6930.000     3690.000    
N02720           3370.000     3030.000    
N00226           4690.000     2070.000    
N00631           6030.000     150.000     
N00432           7550.000     6330.000    
N02619           6910.000     3710.000    
N01538           5590.000     2150.000    
N02428           8310.000     3330.000    
N00780           4950.000     5870.000    
N01757           5810.000     2570.000    
N00603           1950.000     4890.000    
N01351           7170.000     610.000     
N01587           1910.000     4870.000    
N00918           410.000      2790.000    
N00724           1270.000     2530.000    
N01762           7230.000     2330.000    
N01708           5830.000     2830.000    
N01377           6170.000     3130.000    
N02841           5490.000     6330.000    
N01687           5610.000     2350.000    
N01476           4630.000     1250.000    
N01520           8190.000     3330.000    
N00708           3130.000     4170.000    
N01894           5530.000     4350.000    
N02179           2890.000     1650.000    
N00626           7690.000     1310.000    
N02536           1430.000     4590.000    
N00826           5090.000     2410.000    
N01089           1050.000     4210.000    
N02523           1250.000     2970.000    
N01461           2470.000     3070.000    
N01612           4810.000     2090.000    
N02526           750.000      4330.000    
N01176           10410.000    5210.000    
N02369           7030.000     1150.000    
N01867           7150.000     3670.000    
N00835           7230.000     690.000     
N00457           6970.000     5670.000    
N02304           7330.000     7030.000    
N00574           10290.000    5150.000    
N00988           5490.000     5970.000    
N01611           7670.000     1390.000    
N01410           1810.000     2650.000    
N02517           3330.000     3130.000    
N01118           6470.000     3450.000    
N01247           5550.000     150.000     
N01280           4650.000     4690.000    
N00174           3590.000     2250.000    
N02801           7410.000     3470.000    
N00834           7130.000     550.000     
N02410           5690.000     6310.000    
N01632           2630.000     1990.000    
N02004           5190.000     5010.000    
N01746           6830.000     2310.000    
N00402           6250.000     550.000     
N02741           9330.000     4930.000    
N02281           7090.000     6550.000    
N00340           7910.000     3050.000    
N01100           8130.000     2090.000    
N02787           2770.000     3210.000    
N01814           5870.000     4210.000    
N00891           8150.000     2810.000    
N02469           7390.000     4370.000    
N02494           5190.000     930.000     
N01389           2610.000     1870.000    
N02130           7930.000     4230.000    
N01093           5290.000     6270.000    
N02312           7390.000     2070.000    
N01971           5410.000     3650.000    
N01141           10050.000    5930.000    
N01050           1490.000     4230.000    
N00134           4950.000     210.000     
N00538           7430.000     5070.000    
N02069           2290.000     4670.000    
N00565           9050.000     4250.000    
N01649           1050.000     2250.000    
N00693           3070.000     3370.000    
N02677           2530.000     3490.000    
N00592           10530.000    6070.000    
N01293           6350.000     2470.000    
N00703           3030.000     4270.000    
N01768           6850.000     2530.000    
N01057           1690.000     4470.000    
N00054           5510.000     5090.000    
N00647           5850.000     130.000     
N01074           5510.000     4410.000    
N02100           2270.000     5110.000    
N02115           7930.000     4370.000    
N00900           4490.000     1790.000    
N02103           2530.000     5110.000    
N01068           4530.000     5750.000    
N00865           7450.000     6450.000    
N02719           3290.000     3370.000    
N00373           6910.000     430.000     
N00646           5710.000     110.000     
N01294           6610.000     2110.000    
N01129           7830.000     2850.000    
N02418           350.000      3970.000    
N00328           7270.000     2030.000    
N00358           8130.000     3310.000    
N02777           5630.000     5970.000    
N02463           6990.000     4370.000    
N00218           5570.000     2150.000    
N00959           2650.000     1910.000    
N02465           7450.000     5450.000    
N00376           8050.000     2010.000    
N02168           8810.000     4270.000    
N00499           5090.000     5770.000    
N00003           250.000      1990.000    
N00302           5790.000     3330.000    
N02646           2010.000     4830.000    
N01769           6650.000     2550.000    
N00390           7890.000     2090.000    
N00303           6130.000     3370.000    
N02413           8430.000     6430.000    
N00280           5570.000     3250.000    
N01033           6810.000     3390.000    
N01703           5710.000     2830.000    
N01386           2830.000     1630.000    
N01329           7470.000     6170.000    
N00234           6110.000     70.000      
N01270           2930.000     2670.000    
N02119           7970.000     4990.000    
N00811           4370.000     2050.000    
N00889           7790.000     2830.000    
N01166           10090.000    5730.000    
N01101           8210.000     2130.000    
N01969           4870.000     3670.000    
N01529           6550.000     5690.000    
N00652           6830.000     370.000     
N01977           4770.000     5330.000    
N01992           5050.000     4250.000    
N02512           10070.000    5690.000    
N00365           8110.000     3350.000    
N00822           5230.000     2110.000    
N02017           5370.000     5050.000    
N00905           5690.000     630.000     
N02242           4210.000     6410.000    
N02157           8710.000     4290.000    
N00154           2090.000     2730.000    
N01793           5510.000     3970.000    
N02174           2650.000     1990.000    
N01832           6910.000     4150.000    
N02645           2690.000     3850.000    
N00701           2850.000     4570.000    
N01764           7110.000     2510.000    
N00196           4970.000     1090.000    
N01855           6910.000     3690.000    
N01902           4890.000     3370.000    
N01948           2470.000     2590.000    
N00264           5910.000     2090.000    
N01543           5530.000     710.000     
N01972           4470.000     4150.000    
N01827           6210.000     3730.000    
N02078           2450.000     3790.000    
N02486           3450.000     2610.000    
N00088           6670.000     350.000     
N02091           2690.000     5090.000    
N02843           6110.000     5970.000    
N01915           4090.000     3330.000    
N02025           4590.000     4950.000    
N01939           4590.000     3430.000    
N01859           7170.000     4150.000    
N00612           3450.000     5050.000    
N01647           790.000      2210.000    
N01016           1250.000     2590.000    
N02159           8190.000     4250.000    
N02313           7370.000     2230.000    
N02643           3190.000     3910.000    
N00269           6110.000     2090.000    
N00289           6870.000     3510.000    
N00434           7370.000     6290.000    
N00941           4550.000     1210.000    
N00711           2210.000     5530.000    
N01379           7590.000     4710.000    
N01562           9910.000     6070.000    
N02529           1590.000     4510.000    
N00615           3130.000     5090.000    
N01503           8010.000     6390.000    
N01962           4570.000     3570.000    
N00205           2990.000     3150.000    
N02095           2950.000     5070.000    
N02713           7390.000     3310.000    
N00422           7070.000     850.000     
N02271           6610.000     6690.000    
N01615           5770.000     150.000     
N00158           2410.000     3050.000    
N01391           6670.000     270.000     
N02507           10070.000    5710.000    
N01580           4970.000     4990.000    
N01620           6030.000     530.000     
N01825           5530.000     4930.000    
N01791           5970.000     3310.000    
N01625           7290.000     1110.000    
N01810           5770.000     4190.000    
N01883           4890.000     2130.000    
N01020           990.000      2910.000    
N02654           3210.000     3470.000    
N01447           5890.000     4370.000    
N01995           5210.000     3990.000    
N01618           5970.000     590.000     
N01715           6110.000     2790.000    
N00993           6050.000     5970.000    
N00496           5210.000     5890.000    
N00505           4850.000     5890.000    
N02290           7030.000     6670.000    
N02692           1930.000     4250.000    
N00150           2350.000     2290.000    
N00586           9950.000     5970.000    
N01067           5590.000     2570.000    
N00928           150.000      3890.000    
N01398           190.000      2490.000    
N02429           2850.000     3130.000    
N01044           1150.000     3150.000    
N00123           2190.000     2150.000    
N02585           9310.000     4950.000    
N01527           6610.000     5850.000    
N02247           4110.000     5950.000    
N00014           7770.000     2050.000    
N02549           6090.000     6550.000    
N00787           7110.000     810.000     
N00016           6870.000     2090.000    
N01102           8290.000     2370.000    
N02620           7350.000     2550.000    
N02511           10030.000    5810.000    
N02830           6630.000     6730.000    
N00678           5450.000     3830.000    
N01332           1930.000     5550.000    
N00500           5290.000     5810.000    
N00989           5350.000     5950.000    
N00361           7830.000     3310.000    
N01467           2730.000     2470.000    
N02625           4650.000     2090.000    
N01338           5850.000     3610.000    
N01265           4930.000     5090.000    
N02682           2410.000     3910.000    
N01505           7450.000     6210.000    
N00316           2590.000     5230.000    
N00808           4210.000     2030.000    
N00170           3430.000     2270.000    
N00690           1910.000     4250.000    
N02132           7930.000     4270.000    
N01804           5870.000     4350.000    
N00814           4010.000     2090.000    
N01806           6050.000     3730.000    
N02616           7270.000     1070.000    
N00671           310.000      3970.000    
N01451           6870.000     2970.000    
N01336           1910.000     5570.000    
N01741           6870.000     2810.000    
N02818           7370.000     2650.000    
N01653           3110.000     2330.000    
N00567           7430.000     6450.000    
N01744           6830.000     2090.000    
N00441           7750.000     6330.000    
N01462           2330.000     3070.000    
N00816           4090.000     2110.000    
N00621           7830.000     1710.000    
N00389           7950.000     1910.000    
N00710           2950.000     4490.000    
N00087           6890.000     490.000     
N02749           670.000      4070.000    
N01409           1690.000     2670.000    
N01504           7370.000     6710.000    
N01973           4450.000     4130.000    
N02034           4490.000     4850.000    
N01002           6170.000     5650.000    
N00380           7350.000     1830.000    
N00672           550.000      4050.000    
N00770           10570.000    6030.000    
N01479           4230.000     1670.000    
N01614           5950.000     170.000     
N00637           6170.000     90.000      
N02672           2290.000     3250.000    
N02776           4690.000     4210.000    
N01963           4950.000     3450.000    
N02219           5470.000     6450.000    
N00296           6170.000     3150.000    
N02129           7910.000     4310.000    
N00106           2410.000     2390.000    
N02708           3370.000     2750.000    
N00083           6470.000     590.000     
N01454           8250.000     2810.000    
N02253           4350.000     6330.000    
N01548           7730.000     2870.000    
N02345           5790.000     770.000     
N00979           7930.000     3670.000    
N01799           5850.000     3990.000    
N02767           7350.000     2630.000    
N02768           7110.000     2770.000    
N02000           5210.000     4310.000    
N02059           2570.000     4170.000    
N00854           7210.000     5430.000    
N02414           8150.000     6390.000    
N01684           5610.000     2370.000    
N00112           2450.000     2110.000    
N02674           2270.000     3290.000    
N00677           5430.000     3670.000    
N02417           250.000      3970.000    
N01493           6330.000     2110.000    
N02076           2470.000     3710.000    
N00537           8750.000     4190.000    
N00512           4970.000     5870.000    
N02752           890.000      4130.000    
N00495           5070.000     5870.000    
N02805           8970.000     4570.000    
N00644           5370.000     130.000     
N02793           7990.000     6070.000    
N01541           5330.000     2090.000    
N01431           6150.000     3410.000    
N01452           6850.000     2810.000    
N01572           5930.000     2090.000    
N02556           6250.000     6850.000    
N00323           3190.000     3750.000    
N01739           6870.000     2750.000    
N00130           4610.000     370.000     
N02279           6570.000     6010.000    
N01666           7970.000     5470.000    
N00068           1510.000     2190.000    
N00012           830.000      2250.000    
N00138           5430.000     70.000      
N01484           4150.000     2030.000    
N02015           4950.000     5050.000    
N00246           5470.000     2210.000    
N00240           5430.000     2250.000    
N00320           3050.000     4250.000    
N00372           7030.000     510.000     
N01396           270.000      1970.000    
N02778           5870.000     6030.000    
N00235           6270.000     110.000     
N02311           7370.000     2490.000    
N00233           6010.000     50.000      
N00413           6210.000     4410.000    
N02112           7990.000     5350.000    
N02182           2790.000     1770.000    
N01655           3190.000     3290.000    
N02114           7990.000     5650.000    
N01716           6210.000     2830.000    
N01459           10430.000    6010.000    
N01456           8290.000     2610.000    
N00831           5210.000     3430.000    
N01534           9870.000     5870.000    
N00859           6450.000     6010.000    
N02800           7470.000     3370.000    
N01717           6310.000     3030.000    
N01158           7990.000     6790.000    
N02351           6070.000     910.000     
N00321           3130.000     4110.000    
N00375           7870.000     1770.000    
N01809           5550.000     4210.000    
N00023           7350.000     7070.000    
N02216           5110.000     6630.000    
N00488           5430.000     5250.000    
N02143           7950.000     3870.000    
N02267           6610.000     6670.000    
N00775           1790.000     4710.000    
N01704           5550.000     2850.000    
N02412           8370.000     6550.000    
N00001           590.000      2190.000    
N02735           9630.000     4990.000    
N01206           8390.000     4270.000    
N01819           6870.000     4350.000    
N02461           7390.000     5590.000    
N01383           7050.000     510.000     
N00525           4350.000     5770.000    
N00004           2350.000     2270.000    
N00031           6970.000     6090.000    
N01330           7450.000     6350.000    
N02751           730.000      4130.000    
N00199           3230.000     3310.000    
N02527           1650.000     4470.000    
N00857           7090.000     5670.000    
N00183           2010.000     2170.000    
N01714           6130.000     2810.000    
N01581           5490.000     5090.000    
N02008           5210.000     4710.000    
N02436           450.000      2470.000    
N01582           5470.000     5170.000    
N02695           1190.000     4390.000    
N00286           6890.000     3130.000    
N02171           9010.000     4570.000    
N01289           7970.000     5390.000    
N00954           7930.000     3890.000    
N00590           10030.000    5710.000    
N01029           7230.000     2310.000    
N02493           5330.000     830.000     
N02814           7350.000     3110.000    
N00185           2250.000     2210.000    
N01901           4970.000     3390.000    
N00886           7390.000     4150.000    
N02725           8470.000     5050.000    
N01300           6870.000     2050.000    
N01128           8010.000     2830.000    
N01961           4550.000     4170.000    
N01698           6390.000     3010.000    
N01811           5530.000     3750.000    
N00198           3250.000     3210.000    
N01355           5450.000     2770.000    
N02603           7370.000     2550.000    
N01940           3370.000     2830.000    
N02356           6110.000     1210.000    
N00876           7170.000     3690.000    
N01297           6630.000     2170.000    
N02550           6050.000     6750.000    
N01654           6290.000     2070.000    
N01448           6090.000     4390.000    
N01408           1510.000     2710.000    
N02416           290.000      4030.000    
N01521           7970.000     3330.000    
N00903           5430.000     750.000     
N01091           4990.000     6170.000    
N02314           6990.000     2090.000    
N02139           7770.000     4690.000    
N02506           8590.000     6550.000    
N01577           6950.000     2310.000    
N01388           2650.000     1790.000    
N02009           5230.000     4890.000    
N01434           6210.000     3470.000    
N00630           6250.000     150.000     
N02389           4210.000     1670.000    
N00907           5950.000     590.000     
N00444           7910.000     6330.000    
N01994           5470.000     4330.000    
N00377           7870.000     1970.000    
N02269           7070.000     7110.000    
N01595           9970.000     5990.000    
N01250           7390.000     7110.000    
N01921           4550.000     3410.000    
N01488           7330.000     1810.000    
N01390           2550.000     1930.000    
N02156           8790.000     4110.000    
N01702           5970.000     2830.000    
N00589           9870.000     5710.000    
N01464           2250.000     2850.000    
N01805           5850.000     3930.000    
N01437           6150.000     3710.000    
N02742           9170.000     4950.000    
N01701           7270.000     2750.000    
N01295           6410.000     2110.000    
N02444           7350.000     2610.000    
N01601           690.000      4270.000    
N00247           5590.000     2210.000    
N00089           6510.000     270.000     
N02447           9010.000     5070.000    
N01001           6910.000     6030.000    
N00675           6130.000     2170.000    
N00515           4410.000     5790.000    
N01782           6370.000     2570.000    
N00931           910.000      4110.000    
N01850           7150.000     4350.000    
N01956           3330.000     3010.000    
N01700           7130.000     2750.000    
N00784           310.000      4030.000    
N00067           1050.000     2270.000    
N01967           5430.000     3650.000    
N01554           5450.000     3430.000    
N00392           7870.000     2350.000    
N00482           5390.000     5910.000    
N02650           2950.000     3830.000    
N02821           4990.000     2330.000    
N02595           10270.000    5310.000    
N00348           7910.000     3150.000    
N00423           7490.000     5110.000    
N01071           5230.000     4450.000    
N00071           8070.000     2030.000    
N02825           5230.000     4910.000    
N01140           9910.000     6090.000    
N01896           5510.000     4350.000    
N00186           2890.000     2330.000    
N00642           5150.000     190.000     
N02594           10250.000    5250.000    
N02641           3210.000     3590.000    
N01282           1830.000     4950.000    
N00745           8950.000     4550.000    
N02816           7370.000     2970.000    
N01393           250.000      2130.000    
N01475           5070.000     1010.000    
N02534           1390.000     4270.000    
N01380           2310.000     3190.000    
N00167           3810.000     1890.000    
N00922           110.000      2830.000    
N00151           2390.000     2190.000    
N01285           9190.000     5570.000    
N00325           6870.000     2310.000    
N01801           5850.000     3810.000    
N00721           1930.000     4850.000    
N01621           8270.000     3330.000    
N02794           7970.000     5870.000    
N00532           9250.000     4850.000    
N02553           6030.000     6730.000    
N02651           3170.000     3870.000    
N01779           6150.000     2550.000    
N01947           3350.000     2710.000    
N01968           5250.000     3670.000    
N00479           5270.000     5670.000    
N02745           6030.000     230.000     
N01629           5050.000     910.000     
N01497           8110.000     2050.000    
N02293           7890.000     6630.000    
N00740           9310.000     4910.000    
N02244           3970.000     6510.000    
N00367           7590.000     1170.000    
N02354           6050.000     630.000     
N00041           6590.000     3310.000    
N01665           7990.000     5830.000    
N00356           7770.000     3370.000    
N00056           7410.000     4870.000    
N02715           7310.000     3370.000    
N01657           3170.000     3170.000    
N02275           6630.000     6370.000    
N01598           10010.000    5910.000    
N02449           8630.000     5070.000    
N02781           5070.000     6110.000    
N00553           6130.000     5590.000    
N02118           7970.000     4610.000    
N00585           9930.000     5890.000    
N02826           6250.000     6710.000    
N00244           5350.000     2110.000    
N02802           8250.000     3290.000    
N01887           5470.000     3730.000    
N01098           8150.000     2090.000    
N02499           7370.000     3970.000    
N01126           7690.000     1470.000    
N02637           8570.000     5070.000    
N00141           5810.000     50.000      
N01348           2910.000     2370.000    
N01928           3770.000     2190.000    
N00155           1750.000     2970.000    
N02147           3250.000     3150.000    
N00683           3510.000     3890.000    
N01870           7290.000     3670.000    
N02192           4410.000     590.000     
N01463           2350.000     2730.000    
N02491           6210.000     90.000      
N00439           8090.000     6350.000    
N02472           7870.000     4270.000    
N00604           1610.000     4410.000    
N02533           1370.000     4250.000    
N00669           8030.000     6450.000    
N02714           7750.000     3310.000    
N00278           5470.000     3130.000    
N02177           2650.000     1970.000    
N01213           7650.000     6790.000    
N01003           5930.000     5450.000    
N01103           8290.000     2490.000    
N02067           2370.000     4510.000    
N01039           5530.000     3250.000    
N01742           6890.000     2990.000    
N01831           6910.000     4310.000    
N01328           7370.000     6150.000    
N01051           930.000      4150.000    
N01938           4710.000     3390.000    
N00819           5030.000     2090.000    
N02705           3390.000     2650.000    
N01699           6950.000     2750.000    
N00483           5550.000     5930.000    
N02495           5930.000     50.000      
N02668           2790.000     3270.000    
N02723           9190.000     4810.000    
N01358           6270.000     3410.000    
N00415           6910.000     4390.000    
N02467           7430.000     4350.000    
N00349           7870.000     3290.000    
N00085           6770.000     670.000     
N02700           7450.000     3350.000    
N01492           7110.000     2270.000    
N02710           7990.000     5730.000    
N01996           5450.000     3970.000    
N02558           7250.000     690.000     
N00025           5910.000     6030.000    
N01898           5470.000     5150.000    
N02513           4750.000     5870.000    
N00411           7470.000     6370.000    
N02475           3870.000     2090.000    
N00489           5450.000     5170.000    
N00371           7090.000     570.000     
N02239           4670.000     6410.000    
N01863           7150.000     3890.000    
N00485           5110.000     5750.000    
N01502           6850.000     2110.000    
N01510           9750.000     5590.000    
N01055           1350.000     4190.000    
N00396           7770.000     2150.000    
N02252           4090.000     6150.000    
N00324           3230.000     3610.000    
N01622           7110.000     890.000     
N01803           5870.000     4190.000    
N02035           4930.000     5070.000    
N01719           6290.000     2810.000    
N02381           4730.000     350.000     
N01588           1910.000     4810.000    
N01777           6150.000     2430.000    
N00908           6390.000     3030.000    
N01583           5530.000     5150.000    
N01350           6970.000     450.000     
N00431           7730.000     6350.000    
N00556           6210.000     5670.000    
N02054           4250.000     4070.000    
N02307           7570.000     6990.000    
N02093           3010.000     5090.000    
N00201           3510.000     3250.000    
N01767           6870.000     2530.000    
N00148           2210.000     2770.000    
N00094           270.000      2110.000    
N01975           4290.000     4090.000    
N01487           7350.000     1930.000    
N01511           9830.000     5730.000    
N00243           5350.000     2230.000    
N02537           1350.000     4410.000    
N01439           6190.000     3750.000    
N00285           5610.000     2810.000    
N01839           6670.000     4150.000    
N00203           3270.000     3510.000    
N00649           6090.000     70.000      
N02524           1230.000     2850.000    
N00216           5450.000     1970.000    
N01035           6870.000     3110.000    
N00304           5830.000     3330.000    
N02823           7250.000     1030.000    
N02448           8850.000     5070.000    
N02332           6410.000     890.000     
N01081           7330.000     1630.000    
N02748           490.000      4010.000    
N02261           4430.000     5970.000    
N00065           770.000      2230.000    
N00917           250.000      2810.000    
N02701           6970.000     3370.000    
N00855           7290.000     5630.000    
N00090           210.000      2330.000    
N01788           5810.000     2790.000    
N01382           7150.000     610.000     
N01019           510.000      2850.000    
N02780           5130.000     6050.000    
N02161           8510.000     4250.000    
N01868           7130.000     3670.000    
N00311           5790.000     3550.000    
N01211           7390.000     6970.000    
N00665           8010.000     6750.000    
N01818           5610.000     4390.000    
N00605           1490.000     4290.000    
N00290           6190.000     3090.000    
N02567           6790.000     6290.000    
N01411           1990.000     2610.000    
N00032           6810.000     6050.000    
N02138           7450.000     4730.000    
N01381           7070.000     510.000     
N00687           3850.000     3950.000    
N01335           1950.000     5610.000    
N01607           7250.000     2190.000    
N00147           2090.000     3030.000    
N01917           4310.000     3370.000    
N01709           5810.000     3050.000    
N02167           8910.000     4290.000    
N01303           9390.000     5290.000    
N02605           5050.000     1010.000    
N00932           1050.000     4150.000    
N02085           8310.000     2870.000    
N01367           4110.000     3310.000    
N02464           7350.000     4330.000    
N01630           4950.000     270.000     
N02104           2590.000     5150.000    
N01642           5970.000     150.000     
N02148           3310.000     3130.000    
N00600           2110.000     5130.000    
N01906           4810.000     3370.000    
N00919           150.000      2830.000    
N00617           2050.000     5070.000    
N01966           5470.000     3670.000    
N02678           2710.000     3530.000    
N00109           2330.000     2330.000    
N01494           6890.000     1850.000    
N02063           2650.000     3970.000    
N02629           4310.000     2110.000    
N00152           2430.000     2110.000    
N00498           4970.000     5830.000    
N02296           7090.000     6830.000    
N01636           5210.000     190.000     
N02543           6050.000     6290.000    
N00921           610.000      2810.000    
N01759           6130.000     2570.000    
N02696           2890.000     3350.000    
N00299           5830.000     3390.000    
N00632           6150.000     130.000     
N00329           7310.000     1870.000    
N00424           7350.000     5110.000    
N02280           6630.000     6130.000    
N01481           4250.000     1590.000    
N00242           5350.000     2150.000    
N02614           6850.000     3670.000    
N01669           7970.000     5370.000    
N00173           3150.000     2330.000    
N02087           8310.000     2810.000    
N00894           6350.000     1110.000    
N02060           2390.000     4490.000    
N00435           8010.000     6590.000    
N01861           7170.000     4330.000    
N00064           650.000      2190.000    
N02500           6470.000     850.000     
N01135           9130.000     5450.000    
N00991           5730.000     5990.000    
N00507           5230.000     5910.000    
N01837           6230.000     4190.000    
N00182           3790.000     2110.000    
N02659           2510.000     3290.000    
N01092           5250.000     6430.000    
N00317           2610.000     5070.000    
N00963           3670.000     1950.000    
N00803           2850.000     3090.000    
N00929           330.000      3950.000    
N02706           3410.000     2750.000    
N01920           4170.000     3330.000    
N01444           6230.000     3990.000    
N02835           6410.000     5690.000    
N01555           5430.000     3570.000    
N02728           9910.000     4990.000    
N01036           6930.000     3510.000    
N01298           6330.000     2130.000    
N01209           7430.000     4750.000    
N02263           4210.000     6390.000    
N02379           6970.000     1410.000    
N00370           7150.000     630.000     
N02032           4210.000     4950.000    
N02098           2310.000     5090.000    
N02613           6890.000     3910.000    
N00010           1070.000     2270.000    
N00437           7990.000     6450.000    
N02551           6070.000     6710.000    
N01645           310.000      1970.000    
N02669           2530.000     3290.000    
N00828           3410.000     2910.000    
N01123           7370.000     2990.000    
N00383           7370.000     2310.000    
N01884           5390.000     2850.000    
N01851           7150.000     4170.000    
N00009           1190.000     2250.000    
N01765           6970.000     2510.000    
N01397           210.000      2470.000    
N02647           2710.000     3790.000    
N01526           7970.000     5190.000    
N00810           4330.000     1890.000    
N02283           6850.000     6110.000    
N00175           3190.000     2370.000    
N00571           7390.000     6270.000    
N01608           7170.000     2090.000    
N00284           5470.000     2690.000    
N01516           770.000      2250.000    
N01836           6130.000     3950.000    
N00164           1830.000     3050.000    
N02803           9690.000     5530.000    
N02080           2270.000     3350.000    
N02652           3210.000     3870.000    
N00550           5570.000     5110.000    
N02056           2810.000     3170.000    
N01145           8450.000     6490.000    
N01477           4630.000     1290.000    
N02704           7610.000     3310.000    
N00070           6950.000     2070.000    
N00619           1190.000     2950.000    
N02473           3450.000     2390.000    
N01512           9550.000     5310.000    
N01813           6090.000     4170.000    
N02036           4770.000     5030.000    
N00250           5470.000     2070.000    
N01955           2910.000     2510.000    
N01292           6330.000     2150.000    
N01731           6170.000     2810.000    
N00853           6070.000     6090.000    
N01406           1350.000     2930.000    
N00871           7010.000     810.000     
N01596           9830.000     5690.000    
N01413           3090.000     4230.000    
N01888           5430.000     3590.000    
N02666           3210.000     3610.000    
N01531           6230.000     5710.000    
N00229           6030.000     2110.000    
N00258           6170.000     2290.000    
N00099           1870.000     2150.000    
N00336           7370.000     3070.000    
N01366           4030.000     3270.000    
N01269           3190.000     2670.000    
N02544           6050.000     6150.000    
N01114           6530.000     3290.000    
N00915           150.000      2770.000    
N02329           6290.000     570.000     
N02047           4970.000     5050.000    
N00139           5570.000     50.000      
N01574           6170.000     2590.000    
N01880           5050.000     2370.000    
N01260           4430.000     4710.000    
N00347           7910.000     2990.000    
N00830           5150.000     3390.000    
N02711           8010.000     6010.000    
N00546           7470.000     5070.000    
N00539           7450.000     5430.000    
N02819           7410.000     2750.000    
N00410           7470.000     6230.000    
N02634           9450.000     5030.000    
N02813           7350.000     3270.000    
N00251           5670.000     2150.000    
N00481           5490.000     5930.000    
N02508           9950.000     6010.000    
N01060           970.000      4190.000    
N02702           6990.000     3390.000    
N00066           950.000      2250.000    
N01125           7990.000     1870.000    
N02632           9650.000     5030.000    
N01586           1810.000     4670.000    
N01496           6890.000     2010.000    
N01946           3350.000     2690.000    
N00694           2790.000     3350.000    
N02071           2650.000     3770.000    
N00850           6010.000     6050.000    
N02824           7130.000     890.000     
N00124           2110.000     2170.000    
N02779           5470.000     5990.000    
N00366           8010.000     3470.000    
N01532           6670.000     5670.000    
N00378           7390.000     870.000     
N00018           6610.000     3430.000    
N00397           7870.000     2110.000    
N00779           1290.000     4230.000    
N00446           7570.000     6330.000    
N02530           1550.000     4550.000    
N00829           5450.000     2890.000    
N01314           250.000      2430.000    
N02521           1210.000     2950.000    
N00717           2610.000     5030.000    
N01208           8010.000     4270.000    
N00491           5170.000     6030.000    
N01895           5510.000     5110.000    
N00709           3010.000     4370.000    
N01353           710.000      4210.000    
N01078           4530.000     3390.000    
N00225           4270.000     2050.000    
N00330           8230.000     3310.000    
N02287           7070.000     6190.000    
N02570           7070.000     6430.000    
N02105           2630.000     5170.000    
N00664           8030.000     6610.000    
N02440           1210.000     2570.000    
N01756           6730.000     2530.000    
N01307           1210.000     2870.000    
N01869           7130.000     3570.000    
N02231           4670.000     6430.000    
N01058           1850.000     4690.000    
N00300           6010.000     3390.000    
N01515           890.000      2270.000    
N01999           5250.000     3790.000    
N02285           7130.000     6210.000    
N02476           7010.000     3910.000    
N00651           6730.000     310.000     
N01090           6170.000     6290.000    
N00180           3730.000     1950.000    
N00212           6750.000     310.000     
N01771           6650.000     2530.000    
N00313           2390.000     5590.000    
N00449           7290.000     5290.000    
N01916           3730.000     3290.000    
N02608           4390.000     1470.000    
N01886           5430.000     2870.000    
N02531           1390.000     4610.000    
N02061           2510.000     4270.000    
N01291           6050.000     6370.000    
N01841           6210.000     4210.000    
N00774           6050.000     6850.000    
N01970           4570.000     3630.000    
N01031           7410.000     3370.000    
N02170           8910.000     4410.000    
N02178           2950.000     1590.000    
N00206           3410.000     3190.000    
N02111           7990.000     5190.000    
N01530           6390.000     5710.000    
N01306           1130.000     2890.000    
N02596           10430.000    5350.000    
N01198           10530.000    5130.000    
N01617           4810.000     350.000     
N01668           7950.000     5230.000    
N00338           7390.000     3890.000    
N00487           5250.000     5670.000    
N00692           3210.000     3410.000    
N00063           350.000      2050.000    
N00958           2610.000     1990.000    
N00679           5130.000     3470.000    
N00093           230.000      2250.000    
N02626           4410.000     2090.000    
N02266           6450.000     6710.000    
N01662           3950.000     1790.000    
N00011           950.000      2270.000    
N01721           6410.000     3030.000    
N00343           7990.000     3510.000    
N02136           7930.000     4430.000    
N01083           5470.000     1950.000    
N00924           1050.000     2890.000    
N00864           7410.000     6590.000    
N02310           7130.000     7010.000    
N00379           7530.000     1030.000    
N01755           6910.000     2530.000    
N02140           7950.000     4710.000    
N01465           2130.000     2790.000    
N02094           3010.000     5070.000    
N01552           5570.000     3570.000    
N02240           4550.000     6350.000    
N00275           5470.000     3290.000    
N01795           5730.000     4190.000    
N02450           8530.000     5070.000    
N01900           4810.000     3410.000    
N01616           4950.000     290.000     
N00027           7910.000     3710.000    
N01435           6210.000     3630.000    
N02501           6610.000     650.000     
N02834           6290.000     5690.000    
N00456           6990.000     5670.000    
N02653           3170.000     3830.000    
N00310           6010.000     3490.000    
N00659           2530.000     2250.000    
N02208           6810.000     3350.000    
N02209           6850.000     3170.000    
N00999           6590.000     5950.000    
N00254           6130.000     2050.000    
N01146           8390.000     6390.000    
N01800           5830.000     3970.000    
N02822           4970.000     2350.000    
N00572           7550.000     6310.000    
N00227           5550.000     2130.000    
N00691           1990.000     4150.000    
N01267           3490.000     3870.000    
N02365           6950.000     1470.000    
N01143           8230.000     6370.000    
N02582           9610.000     5370.000    
N00034           6690.000     6010.000    
N00398           7630.000     2030.000    
N00086           6810.000     690.000     
N01753           7110.000     2310.000    
N01266           3270.000     3830.000    
N02384           4770.000     410.000     
N01130           7970.000     2850.000    
N00620           1030.000     2930.000    
N01407           1230.000     2910.000    
N00176           2710.000     2370.000    
N02250           4090.000     6130.000    
N00217           5470.000     1750.000    
N02019           5730.000     5270.000    
N00645           5530.000     110.000     
N01365           2670.000     4990.000    
N01535           10150.000    5490.000    
N00127           2870.000     1570.000    
N02680           2450.000     3730.000    
N01643           7330.000     1790.000    
N01455           8290.000     2770.000    
N00149           2330.000     2390.000    
N02199           4170.000     1550.000    
N01445           5830.000     4370.000    
N00920           450.000      2810.000    
N01713           6170.000     2850.000    
N00215           5450.000     2070.000    
N02326           6610.000     630.000     
N01846           6310.000     4170.000    
N01640           5910.000     130.000     
N01046           1570.000     4310.000    
N02002           5350.000     4330.000    
N02709           4990.000     250.000     
N00354           8070.000     3270.000    
N01271           3910.000     2090.000    
N00486           5090.000     5850.000    
N02026           4710.000     5010.000    
N00725           1370.000     2230.000    
N02846           8150.000     2830.000    
N02068           2390.000     4510.000    
N01254           8030.000     5090.000    
N01127           7890.000     2930.000    
N00778           1670.000     4530.000    
N01984           4770.000     5310.000    
N00165           1390.000     2970.000    
N02204           4110.000     1490.000    
N00268           6150.000     2270.000    
N01304           9370.000     5330.000    
N01327           7230.000     6170.000    
N00193           3770.000     2150.000    
N02366           6970.000     1370.000    
N00168           3670.000     1990.000    
N00861           6250.000     6050.000    
N02411           8430.000     6470.000    
N01468           2450.000     2410.000    
N02538           1350.000     4590.000    
N00493           4730.000     5830.000    
N00744           8770.000     4550.000    
N00511           5130.000     5890.000    
N02325           7090.000     530.000     
N00239           5630.000     2090.000    
N00542           7450.000     5410.000    
N02430           4610.000     4850.000    
N00353           7990.000     3150.000    
N00627           7730.000     1390.000    
N01695           5810.000     2890.000    
N00455           7370.000     5330.000    
N01796           5550.000     4010.000    
N01248           5350.000     170.000     
N02065           2230.000     4690.000    
N02102           2590.000     5110.000    
N02474           3470.000     2250.000    
N01852           6910.000     4350.000    
N02278           6590.000     6010.000    
N00287           6930.000     3310.000    
N02128           7970.000     5070.000    
N01897           5490.000     5070.000    
N01378           7410.000     4710.000    
N00727           1210.000     2910.000    
N00292           6190.000     3590.000    
N01773           6390.000     2750.000    
N00948           6890.000     7210.000    
N01272           3410.000     2670.000    
N01834           6970.000     3950.000    
N01879           5030.000     2390.000    
N01374           1810.000     2190.000    
N01659           3510.000     2330.000    
N00827           5490.000     2510.000    
N00104           2550.000     2330.000    
N01690           5570.000     3050.000    
N01913           2930.000     3190.000    
N02415           8070.000     6410.000    
N02698           1590.000     3010.000    
N02697           1770.000     3030.000    
N02443           7350.000     2510.000    
N00786           7190.000     730.000     
N02016           5050.000     4850.000    
N02566           6630.000     6230.000    
N00906           5830.000     590.000     
N01438           6250.000     3710.000    
N00319           2790.000     4730.000    
N00975           7370.000     3930.000    
N01519           8150.000     3310.000    
N02124           7950.000     5010.000    
N00684           3270.000     3870.000    
N02083           8290.000     2870.000    
N02158           7990.000     4250.000    
N01774           6370.000     2530.000    
N00013           670.000      2210.000    
N00222           3710.000     2190.000    
N02535           1390.000     4550.000    
N01308           1250.000     2630.000    
N01989           5030.000     4290.000    
N02590           10150.000    5710.000    
N01635           5370.000     150.000     
N01483           3950.000     2070.000    
N00035           6510.000     5990.000    
N00540           7250.000     5350.000    
N01312           530.000      2490.000    
N01993           5430.000     4350.000    
N01533           9910.000     6050.000    
N02050           3150.000     4090.000    
N01547           7530.000     3330.000    
N00443           7990.000     6190.000    
N01579           7910.000     3870.000    
N01597           9890.000     5770.000    
N02160           8310.000     4250.000    
N01677           8270.000     2150.000    
N00454           7590.000     5090.000    
N01934           3390.000     2950.000    
N02243           3990.000     6490.000    
N01866           7150.000     3870.000    
N00501           5210.000     5790.000    
N01802           5850.000     3730.000    
N00261           6170.000     2150.000    
N00636           6190.000     90.000      
N01489           7270.000     2090.000    
N02044           4790.000     5290.000    
N02796           3170.000     2330.000    
N01501           6850.000     2270.000    
N01341           3730.000     3230.000    
N02635           9690.000     5030.000    
N02569           7050.000     6430.000    
N01817           6070.000     3710.000    
N01763           7110.000     2530.000    
N02058           2670.000     4010.000    
N01752           7090.000     2130.000    
N00190           3750.000     1910.000    
N02305           7470.000     7050.000    
N02747           5430.000     2430.000    
N01256           4490.000     4150.000    
N01923           3770.000     3090.000    
N02519           2610.000     3130.000    
N01480           4310.000     1810.000    
N00713           2550.000     5330.000    
N01442           6390.000     3990.000    
N01957           4430.000     4730.000    
N02258           4430.000     6050.000    
N01433           5830.000     3410.000    
N00451           7410.000     5090.000    
N02831           5670.000     6350.000    
N02514           4710.000     5870.000    
N00609           590.000      4090.000    
N00650           6630.000     230.000     
N00783           570.000      4090.000    
N02092           2910.000     5070.000    
N00640           5730.000     50.000      
N00298           5670.000     3390.000    
N00097           270.000      2070.000    
N02134           7950.000     4650.000    
N02375           7310.000     1190.000    
N02084           8350.000     2830.000    
N01965           4970.000     3670.000    
N02316           6870.000     2270.000    
N02617           7050.000     890.000     
N01559           6870.000     2710.000    
N01385           2930.000     1530.000    
N02427           210.000      2370.000    
N02048           4870.000     5170.000    
N01472           2970.000     1570.000    
N02753           7390.000     3850.000    
N02703           7450.000     3310.000    
N02744           6390.000     150.000     
N01163           5990.000     270.000     
N02589           10350.000    5710.000    
N01000           6790.000     5990.000    
N00442           7910.000     6310.000    
N01061           3970.000     6490.000    
N01210           7450.000     6490.000    
N01038           5530.000     3410.000    
N01491           7130.000     2090.000    
N02782           6170.000     5990.000    
N00513           4690.000     5830.000    
N01400           1510.000     2750.000    
N00342           7990.000     3470.000    
N01008           6690.000     5930.000    
N01402           1750.000     2950.000    
N02599           150.000      2970.000    
N02717           7370.000     3470.000    
N01830           6610.000     3710.000    
N02248           4270.000     6030.000    
N00279           5490.000     3110.000    
N02675           2330.000     3090.000    
N01364           2570.000     5250.000    
N02630           4150.000     2110.000    
N01446           5850.000     4230.000    
N01932           3290.000     3390.000    
N02611           4970.000     1070.000    
N02390           4330.000     1850.000    
N01745           7170.000     2030.000    
N00223           3510.000     2250.000    
N01354           1710.000     4710.000    
N01032           6870.000     3630.000    
N01639           5650.000     130.000     
N00368           7450.000     970.000     
N02352           6030.000     630.000     
N00117           2110.000     3010.000    
N02729           9290.000     5010.000    
N00341           8010.000     3310.000    
N00909           6210.000     3030.000    
N02355           6090.000     990.000     
N00327           6850.000     2030.000    
N01275           3230.000     3550.000    
N01362           2630.000     5270.000    
N00076           6310.000     6250.000    
N02623           3150.000     2350.000    
N00685           3690.000     3930.000    
N00102           1950.000     2210.000    
N02270           7110.000     7010.000    
N01273           3430.000     2490.000    
N02686           1950.000     4230.000    
N01368           4210.000     3310.000    
N02433           6170.000     70.000      
N02249           4410.000     6050.000    
N01006           6970.000     6010.000    
N02471           7890.000     4290.000    
N02442           7370.000     2510.000    
N00484           5150.000     5850.000    
N00445           8150.000     6350.000    
N00547           7610.000     5090.000    
N01912           3030.000     3170.000    
N01778           6150.000     2570.000    
N00796           2970.000     2370.000    
N01890           4790.000     4190.000    
N02693           1810.000     4370.000    
N02075           2410.000     3730.000    
N01648           930.000      2250.000    
N01697           6390.000     2790.000    
N00305           6390.000     3350.000    
N00253           5130.000     970.000     
N01392           7170.000     630.000     
N00504           4970.000     5910.000    
N01522           7750.000     1410.000    
N00536           8790.000     4270.000    
N00986           5790.000     6050.000    
N00508           5090.000     5890.000    
N00825           5210.000     2470.000    
N00502           5330.000     5910.000    
N01820           6210.000     3890.000    
N01349           2710.000     2330.000    
N01069           4730.000     5790.000    
N01952           3190.000     2390.000    
N00945           6710.000     7250.000    
N00453           7510.000     5110.000    
N00395           7810.000     2070.000    
N02282           7050.000     6170.000    
N01470           2710.000     1850.000    
N01115           6350.000     3350.000    
N02740           9110.000     5050.000    
N02137           7950.000     4730.000    
N02799           9350.000     5070.000    
N00726           1270.000     2370.000    
N01299           6730.000     2070.000    
N02657           2710.000     3770.000    
N00006           1890.000     2170.000    
N01951           3210.000     2530.000    
N02769           7390.000     2730.000    
N01905           4570.000     3330.000    
N02126           7930.000     4790.000    
N02303           7110.000     6910.000    
N00195           4010.000     2070.000    
N00892           6350.000     1210.000    
N02109           8010.000     6090.000    
N00393           7690.000     2110.000    
N00364           7950.000     3210.000    
N00597           10010.000    5810.000    
N02424           4570.000     3410.000    
N00191           3310.000     2310.000    
N00904           5550.000     690.000     
N01028           7350.000     2330.000    
N00623           7710.000     1390.000    
N02694           1170.000     4390.000    
N01249           5230.000     210.000     
N00440           8030.000     6410.000    
N00143           2310.000     3030.000    
N00337           7370.000     3510.000    
N02407           5250.000     6270.000    
N01661           4110.000     1690.000    
N01725           6410.000     2790.000    
N02811           7310.000     3310.000    
N02832           6610.000     5670.000    
N00169           3490.000     2210.000    
N01283           1950.000     5570.000    
N01816           6070.000     3730.000    
N01207           8210.000     4270.000    
N00782           710.000      4170.000    
N01838           6530.000     4170.000    
N01710           5810.000     2830.000    
N02122           7710.000     5090.000    
N01132           7910.000     2750.000    
N02196           4150.000     1570.000    
N01131           7830.000     2810.000    
N00293           6210.000     3290.000    
N01048           1230.000     4130.000    
N00091           230.000      2190.000    
N02272           6650.000     6810.000    
N01903           4550.000     3370.000    
N02005           5070.000     4550.000    
N00098           1870.000     2190.000    
N02164           8850.000     4370.000    
N00416           6250.000     4410.000    
N02568           6610.000     6230.000    
N00277           5370.000     3410.000    
N02546           6210.000     6250.000    
N01347           2930.000     2330.000    
N01073           5530.000     4850.000    
N01960           4450.000     4470.000    
N01004           6630.000     5850.000    
N00776           1550.000     4730.000    
N01997           5230.000     3890.000    
N00860           6270.000     6030.000    
N00998           6450.000     5950.000    
N00797           3170.000     2870.000    
N00806           4510.000     1770.000    
N00266           6190.000     2050.000    
N02817           7370.000     2870.000    
N00092           270.000      1910.000    
N00404           6090.000     570.000     
N02815           6970.000     3010.000    
N00438           8010.000     6230.000    
N01835           6190.000     3890.000    
N00714           2730.000     4890.000    
N02007           5470.000     4690.000    
N00965           3490.000     2150.000    
N02679           2450.000     3750.000    
N01573           6210.000     2090.000    
N02498           7170.000     3910.000    
N02792           7470.000     4330.000    
N01881           5310.000     2490.000    
N00554           6610.000     5650.000    
N01142           10130.000    5970.000    
N01216           7290.000     7130.000    
N02264           4370.000     5830.000    
N00221           3910.000     2110.000    
N01988           5070.000     4310.000    
N01251           7910.000     5090.000    
N02073           2730.000     3570.000    
N02029           4610.000     4950.000    
N02838           4970.000     6170.000    
N01551           5570.000     3410.000    
N02576           4970.000     750.000     
N02232           4710.000     6430.000    
N02392           4370.000     1830.000    
N01420           6230.000     4350.000    
N02033           4450.000     4810.000    
N00608           790.000      4190.000    
N00739           9370.000     4790.000    
N02484           3410.000     2550.000    
N00351           7910.000     3350.000    
N00962           3550.000     2070.000    
N02522           1190.000     3070.000    
N02690           1870.000     4290.000    
N01255           7970.000     5030.000    
N00638           5890.000     50.000      
N02774           3570.000     5090.000    
N01037           5610.000     3390.000    
N02003           5230.000     4310.000    
N02736           9830.000     4990.000    
N01369           1530.000     2710.000    
N00833           7270.000     710.000     
N00401           6070.000     570.000     
N01882           5050.000     2150.000    
N02665           2750.000     3550.000    
N00610           470.000      4050.000    
N00695           1670.000     4450.000    
N00344           7930.000     3650.000    
N02006           5210.000     4510.000    
N00530           8890.000     4430.000    
N00384           7770.000     1910.000    
N02276           6630.000     6530.000    
N02072           2710.000     3730.000    
N01638           5390.000     150.000     
N00624           7650.000     1270.000    
N00531           9110.000     4670.000    
N02631           9990.000     5010.000    
N00232           5870.000     50.000      
N01315           1310.000     2610.000    
N00492           5230.000     5970.000    
N02277           6610.000     6130.000    
N02049           3210.000     3930.000    
N02488           7070.000     1430.000    
N01120           5730.000     3050.000    
N01117           6630.000     3450.000    
N00381           7370.000     1990.000    
N01278           2610.000     5230.000    
N00107           2110.000     2550.000    
N00272           5510.000     3730.000    
N02610           4690.000     1250.000    
N00391           7990.000     2150.000    
N02483           7130.000     3330.000    
N00509           5090.000     5970.000    
N00224           4110.000     2070.000    
N01063           4530.000     6350.000    
N00533           9210.000     4810.000    
N02055           4270.000     4070.000    
N01599           9170.000     5030.000    
N01678           8310.000     2830.000    
N01043           1170.000     3270.000    
N01660           3490.000     2490.000    
N02738           9550.000     5250.000    
N00588           9770.000     5650.000    
N02804           9490.000     5270.000    
N02485           3470.000     2410.000    
N01849           6970.000     3450.000    
N01873           5410.000     1710.000    
N01427           6910.000     3850.000    
N00858           7230.000     5450.000    
N01910           3770.000     3270.000    
N01401           1510.000     2910.000    
N00622           7790.000     1550.000    
N01011           6110.000     5810.000    
N02141           7950.000     4270.000    
N00957           2590.000     2270.000    
N02188           4550.000     490.000     
N00817           3930.000     2130.000    
N00211           6650.000     230.000     
N00777           1450.000     4290.000    
N02370           7030.000     1050.000    
N00616           1950.000     4910.000    
N00697           2190.000     3690.000    
N01436           6210.000     3650.000    
N02435           250.000      2410.000    
N00262           6170.000     2270.000    
N01872           7290.000     3430.000    
N00870           6870.000     730.000     
N01602           730.000      4290.000    
N01790           5830.000     2570.000    
N01499           7890.000     2330.000    
N01606           7350.000     2290.000    
N02330           6130.000     570.000     
N01024           930.000      2910.000    
N00132           4770.000     290.000     
N01610           7730.000     1510.000    
N02378           7030.000     1010.000    
N01022           690.000      2890.000    
N01204           9330.000     5430.000    
N01892           4930.000     4250.000    
N01864           7350.000     3890.000    
N00331           8330.000     3330.000    
N02274           6710.000     6710.000    
N00267           6150.000     2050.000    
N01656           3170.000     3250.000    
N00360           7930.000     3450.000    
N02246           4110.000     6250.000    
N00794           2910.000     2390.000    
N00926           190.000      2930.000    
N00606           1230.000     4190.000    
N00308           5790.000     3490.000    
N02082           8290.000     2990.000    
N01316           1270.000     2650.000    
N01490           7290.000     2190.000    
N01523           7830.000     1590.000    
N01320           1450.000     2690.000    
N00535           9530.000     5250.000    
N00879           8290.000     2810.000    
N00667           8010.000     6610.000    
N02750           850.000      4110.000    
N01287           7970.000     5830.000    
N00769           10350.000    6010.000    
N00801           3110.000     3010.000    
N01478           4730.000     1250.000    
N00322           3170.000     3930.000    
N00514           4510.000     5850.000    
N00008           1270.000     2250.000    
N00110           2450.000     2650.000    
N02327           6610.000     830.000     
N00944           7450.000     7170.000    
N02458           7810.000     6790.000    
N01343           3210.000     2310.000    
N01862           7150.000     3910.000    
N01259           4370.000     4810.000    
N00587           9810.000     5750.000    
N02583           9470.000     5250.000    
N01776           6150.000     2610.000    
N02013           4670.000     4550.000    
N01253           7590.000     5110.000    
N02673           2270.000     3310.000    
N01889           5410.000     3450.000    
N01319           1290.000     2590.000    
N01030           6890.000     3370.000    
N00648           6250.000     90.000      
N02606           4670.000     1270.000    
N02260           4450.000     5830.000    
N01847           7030.000     4150.000    
N02712           8010.000     5990.000    
N00172           2990.000     2370.000    
N01840           6830.000     4190.000    
N02755           5510.000     4370.000    
N01933           3350.000     3130.000    
N00405           5790.000     630.000     
N01430           6910.000     3650.000    
N00288           6890.000     3350.000    
N01945           2490.000     2590.000    
N02649           3130.000     3850.000    
N01339           3150.000     3930.000    
N02743           4990.000     190.000     
N02024           5170.000     5710.000    
N00497           5370.000     5910.000    
N01113           6370.000     3330.000    
N01075           5530.000     5030.000    
N00952           6630.000     7030.000    
N00135           5050.000     170.000     
N01469           2450.000     2470.000    
N01345           2830.000     2330.000    
N01627           7050.000     830.000     
N00974           3350.000     5070.000    
N01623           7110.000     870.000     
N02497           7330.000     3910.000    
N02718           3370.000     3170.000    
N02505           6810.000     5970.000    
N00409           7570.000     6310.000    
N01542           5470.000     1730.000    
N01787           5630.000     2590.000    
N01760           7270.000     2510.000    
N02716           7150.000     3390.000    
N02739           9330.000     5050.000    
N02211           7390.000     3290.000    
N01751           7110.000     2290.000    
N02237           4730.000     6370.000    
N01517           590.000      2230.000    
N00543           7410.000     5570.000    
N00273           5390.000     3430.000    
N00036           6350.000     5990.000    
N01414           2970.000     4410.000    
N01747           6830.000     2250.000    
N01384           7110.000     550.000     
N01564           9770.000     5630.000    
N01808           5770.000     4210.000    
N00100           2350.000     2250.000    
N01750           6970.000     2290.000    
N01780           6170.000     2510.000    
N00795           2730.000     2370.000    
N00575           8550.000     6530.000    
N00992           5910.000     5970.000    
N01318           1270.000     2310.000    
N00394           7630.000     2070.000    
N02306           7470.000     7030.000    
N00382           7350.000     2130.000    
N01205           9210.000     5570.000    
N00105           2430.000     2350.000    
N02377           7010.000     1150.000    
N00888           7790.000     2810.000    
N02540           7310.000     830.000     
N02371           6950.000     1510.000    
N00192           3250.000     2290.000    
N00934           6810.000     430.000     
N01740           6850.000     2650.000    
N02827           6090.000     6710.000    
N02062           2630.000     4050.000    
N00823           5350.000     2030.000    
N00704           3070.000     4190.000    
N00256           6090.000     2090.000    
N00178           3710.000     2170.000    
N02545           5870.000     6310.000    
N02664           3010.000     3570.000    
N01899           5070.000     3410.000    
N00022           6790.000     3350.000    
N02187           4410.000     570.000     
N02385           4550.000     510.000     
N00980           7950.000     3850.000    
N01514           1090.000     2290.000    
N02376           6990.000     1390.000    
N02633           9550.000     5050.000    
N02656           2730.000     3730.000    
N02077           2490.000     3750.000    
N02727           9690.000     5010.000    
N02489           7310.000     1450.000    
N01215           7790.000     6630.000    
N02070           2190.000     4750.000    
N02135           7950.000     4410.000    
N01628           4930.000     710.000     
N00812           4550.000     2050.000    
N00126           2730.000     1670.000    
N01908           4090.000     3270.000    
N02810           6170.000     3090.000    
N00836           7230.000     670.000     
N01426           6850.000     3910.000    
N01257           4510.000     4130.000    
N01826           5530.000     4310.000    
N01624           7230.000     970.000     
N00209           3350.000     3170.000    
N01585           1850.000     4730.000    
N02294           7910.000     6770.000    
N00506           5390.000     5950.000    
N01874           3890.000     2150.000    
N02286           7090.000     6290.000    
N02833           6170.000     5630.000    
N00385           7790.000     2010.000    
N00849           5530.000     6010.000    
N00798           3190.000     2690.000    
N00793           3090.000     2330.000    
N00282           5490.000     3530.000    
N00369           7270.000     750.000     
N00436           7870.000     6450.000    
N00103           2090.000     2350.000    
N01059           1930.000     4790.000    
N01342           3250.000     3790.000    
N01885           5450.000     2450.000    
N00108           2210.000     2430.000    
N01749           7270.000     2490.000    
N00116           2170.000     2910.000    
N00276           5410.000     3370.000    
N01797           5710.000     3510.000    
N02828           6150.000     6850.000    
N02565           7870.000     3210.000    
N00197           4790.000     1210.000    
N00357           7970.000     3290.000    
N02604           7750.000     3350.000    
N00987           5630.000     5990.000    
N02618           7030.000     830.000     
N02724           9090.000     4690.000    
N00352           7970.000     3130.000    
N00696           2150.000     3850.000    
N01735           6170.000     3030.000    
N02615           6610.000     3730.000    
N00386           7850.000     1810.000    
N02636           8730.000     5070.000    
N02670           2770.000     3330.000    
N01111           5550.000     3730.000    
N01919           4370.000     3350.000    
N02027           4910.000     5030.000    
N01937           4570.000     3370.000    
N02367           7010.000     1190.000    
N00964           3370.000     2250.000    
N02289           7090.000     6630.000    
N01688           5770.000     2350.000    
N01023           510.000      2870.000    
N02737           9430.000     5090.000    
N02125           7950.000     4750.000    
N00503           5090.000     6050.000    
N02052           4550.000     3670.000    
N02317           7450.000     2030.000    
N00573           10230.000    5290.000    
N00131           4690.000     330.000     
N00374           6770.000     330.000     
N00238           5470.000     2010.000    
N01724           6650.000     2790.000    
N01053           1030.000     4150.000    
N01500           6870.000     2450.000    
N00245           5550.000     2110.000    
N02172           9890.000     4990.000    
N00408           7490.000     6230.000    
N01405           1550.000     3010.000    
N01065           4610.000     6530.000    
N01185           10210.000    5710.000    
N01613           5970.000     190.000     
N02106           2650.000     5090.000    
N02238           4690.000     6450.000    
N01112           5750.000     3750.000    
N00362           7930.000     3630.000    
N02121           8430.000     5050.000    
N00990           6590.000     5910.000    
N00403           7090.000     870.000     
N00345           7310.000     2510.000    
N02642           3250.000     3570.000    
N00680           3130.000     3810.000    
N00142           2070.000     2690.000    
N02487           3450.000     2630.000    
N00210           3430.000     3290.000    
N00773           1550.000     4390.000    
N01982           4410.000     5730.000    
N00877           7490.000     2730.000    
N02532           1390.000     4590.000    
N02288           7090.000     6650.000    
N00406           5630.000     670.000     
N01540           5430.000     2070.000    
N00824           5410.000     2510.000    
N02214           4870.000     6490.000    
N00614           3290.000     5090.000    
N00414           5670.000     4390.000    
N01286           4550.000     3730.000    
N00566           8870.000     4290.000    
N02318           7610.000     2030.000    
N00084           6650.000     630.000     
N00163           2350.000     3090.000    
N02213           7390.000     3570.000    
N01537           5750.000     2150.000    
N01860           7150.000     3950.000    
N02133           7950.000     5090.000    
N00179           3690.000     2050.000    
N00720           2750.000     4790.000    
N01651           1470.000     2190.000    
N00159           2830.000     3110.000    
N02457           7410.000     6810.000    
N01998           5210.000     3910.000    
N02726           8950.000     5030.000    
N01119           5490.000     3050.000    
N02097           2550.000     5090.000    
N01950           3010.000     2670.000    
N02245           4190.000     6390.000    
N00548           7450.000     5070.000    

[REPORT]
INPUT NO
CONTROLS NO
NODES ALL
LINKS ALL
